5064
Lattice="37.2600 0.0 0.0 0.0 37.2600 0.0 0.0 0.0 37.2600" Properties=species:S:1:pos:R:3 pbc="T T T" Comment="RPA C-NNP cube3, final production frame: i =   310000, time =   155000.000, E =    -30785.6731856434"
Na  22.1935345165  29.8960893566  9.7925205507
Cl  31.2567602026  8.3793691491  26.0745129772
Na  12.1635135607  26.5415147317  35.2984208966
Cl  11.9748288631  5.1588630515  26.8892390309
Na  21.2393484886  18.3050945395  4.3848728896
Cl  7.0546569087  4.6083457284  14.2724881207
Na  35.7895394256  36.4086602466  14.8012019567
Cl  6.7939091458  28.2886458548  18.2768204615
Na  20.9541751843  28.3561032016  6.6118296809
Cl  4.2983517207  32.0396139900  18.6917819808
Na  4.3404760252  19.4383883478  25.0787649533
Cl  25.9779338690  7.1656562499  32.8892668269
Na  11.1360605930  6.0097785623  30.7744868170
Cl  5.6891443040  10.8329314031  11.7293213776
Na  34.8309795939  25.5215815529  32.1418261433
Cl  16.3979420740  12.2624001250  14.6847683235
Na  24.3088626519  12.2369047284  32.6115774503
Cl  17.7522504554  31.4581699401  9.4403544524
Na  15.9968172644  17.0844184160  14.6380153580
Cl  13.4726668354  32.4256889842  6.2833248436
Na  22.3621967770  23.2627541306  15.2869079744
Cl  20.8261472750  24.9128003136  37.2519673569
Na  31.4569564537  22.3115286511  19.6646941366
Cl  20.8074318382  11.4923616254  27.7198923081
Na  37.1058766488  22.8282372008  1.9132379974
Cl  15.8581869603  3.4575152588  28.7818925100
Na  11.5812891003  29.5291683272  32.7536729192
Cl  36.8901386335  23.4605529020  32.7759625189
Na  21.8054640996  27.8352849641  1.0749434092
Cl  5.3340293367  26.2371854224  4.6561978698
Na  0.9796674036  33.0433409191  15.7367370272
Cl  36.5980160600  8.3280976115  20.4268788412
Na  12.2218362466  6.2731497922  14.5596236954
Cl  14.8802735130  7.0347031610  10.8633110551
Na  20.0655267278  12.3749434566  22.3639587780
Cl  19.1116456974  19.3845275125  34.2916637349
Na  10.3432212554  8.4441055229  11.0030702969
Cl  7.1053475311  15.5232873366  29.6574630261
Na  1.8118486369  29.7291060552  9.2183261686
Cl  36.2183020034  26.3792602795  6.7421565542
Na  34.4488386340  10.3953850578  19.6288595277
Cl  14.7184903001  28.2630709215  30.9103291774
Na  22.2990111640  8.6818074082  31.5729557412
Cl  23.1314644593  8.1976163927  8.8059122381
Na  32.0937555125  2.7769821481  21.5646213425
Cl  30.4683235642  27.0862884164  32.5375902165
Na  17.3921247157  27.7856517094  6.2866359496
Cl  25.4410118383  28.5941154072  3.7498201443
Na  4.4195937995  35.5300560393  21.8606917441
Cl  37.2409702939  32.4803821789  13.4118243380
Na  2.5473854084  32.9223115326  13.0643363104
Cl  12.6526857768  14.8456336052  11.4411085431
Na  25.7274703905  4.5484466239  10.6399119835
Cl  23.0609301109  15.2287700443  2.4657861012
Na  32.5889810102  3.9616068868  26.2064650148
Cl  15.0970775870  22.4131641849  9.6281151418
Na  13.0979627698  18.6161924706  9.9480670151
Cl  17.6764124153  28.7082507375  0.8426297281
Na  6.6898104843  13.2945517353  34.1302682385
Cl  22.3141737210  16.7078543287  20.9584338714
H  17.9478514445  9.5458398145  32.9606897145
H  17.5185592828  8.5908834032  34.0487681453
O  19.7593740348  19.7445811266  18.2815471932
H  20.5051373633  19.6998754742  18.8769460719
H  11.8652357771  28.1859863322  26.9385132976
O  22.9883206158  11.8600038911  30.7536487991
H  22.3261917905  12.5504315303  30.6283926519
H  23.2094417098  11.5739767945  29.8679888527
O  11.7950787773  4.0098272267  32.0531506251
H  12.3491589457  3.2679946205  31.9152751909
H  1.3850765690  14.3949885561  33.5647055877
O  4.6187663032  26.6496902608  8.0503575198
H  5.0894891710  26.5730546109  7.2565141931
H  3.9819655279  27.3891446184  7.7368583535
O  10.5761561296  14.5453151657  29.8946476143
H  10.4031669219  15.5125784484  29.8243962786
H  11.1969337902  14.2594219234  29.1802900056
O  22.6415588113  1.9382111594  14.0092040964
H  21.8146091056  2.5015082662  13.9958059733
H  9.8561932938  19.4503032760  9.6755746366
O  32.4221820098  30.8369469211  12.4792904757
H  33.3079535020  30.4664049427  12.6821006450
H  31.9022863602  30.3989564617  13.1332727565
O  19.1355345484  2.0158879448  10.2420746747
H  19.6969676611  2.7997993828  10.1492429068
H  18.2690227550  2.1495916419  10.6460616119
O  5.3192855853  36.9803411429  9.5446663618
H  4.7735550468  0.4420115765  9.9885914743
H  5.5821448404  0.0311667717  8.6665797220
O  6.8519423797  18.8537346759  5.1017817290
H  10.8248826743  21.2965601314  10.6797726445
H  6.8778669671  17.8870285069  5.2326215217
O  23.2138752585  16.2886807549  6.9887988846
H  23.3431072846  15.4099391059  7.2509447740
H  23.3862863551  16.3468063536  6.0156257065
O  25.4314060798  13.0982930208  27.2942151111
H  26.0675385205  13.2647853351  28.0628503102
H  24.9937681720  13.9109368086  27.0372660869
O  9.9270168724  10.2083498318  19.0361500780
H  9.8483243559  9.2820347033  18.7983169310
H  9.1746500523  10.3545364746  19.6255726984
O  35.5402735358  33.1240604720  28.0275692425
H  35.0564068051  32.2940737444  27.8886604905
H  36.4481701631  32.8591548289  28.2446707774
O  9.3815878238  1.4174178674  0.3938420181
H  34.1149176649  8.2633348681  20.9519327220
H  9.1138957732  1.9796425139  36.8265390681
O  21.7992038502  1.4601745189  4.9258530147
H  20.8359472543  1.4512079425  4.7346030352
H  21.9302747252  1.8063271742  5.7959859525
O  7.3550135592  37.2132295434  16.5945549218
H  8.0434539644  0.5963138174  16.4378721644
H  7.5097475937  36.4408926553  16.0054881728
O  5.7787881640  22.2983708589  29.2563449878
H  5.8414497149  22.2550256405  28.2937501093
H  4.8321967338  22.0280782698  29.4603357187
O  8.0028050940  1.6647195924  22.6461007078
H  8.3997508143  0.9069767350  22.1135477291
H  6.8318792755  9.2955394582  18.5634613525
O  17.1964991529  4.1060062623  4.2101390409
H  16.2420096153  3.9067896384  4.2418286784
H  17.5790468227  3.2012134815  4.4407310342
O  23.7330827124  36.5922946190  15.9338934618
H  24.5385140471  36.9088609742  15.5620645097
H  23.1022101930  0.0391112596  15.8098338746
O  17.7332479478  2.8518457697  7.2836094354
H  16.9443315742  2.2967490397  7.4637722548
H  18.3027548996  2.5898364355  8.0519880249
O  1.6379073365  35.8230909445  10.1251351337
H  1.8227091976  35.9233396247  9.1710361009
H  16.9689557743  15.8663299568  3.9445129158
O  37.1123195820  28.9024163706  8.3488572239
H  36.9064597394  28.0319578455  7.8944656680
H  37.0538563908  29.6033348834  7.6554661588
O  14.2907267831  35.3472042898  14.5182469492
H  13.4008872959  35.3886699503  14.9025251263
H  3.3697817271  33.0864324066  33.9910164502
O  8.6384098912  0.5804110771  5.3387782522
H  8.5333821392  0.0319392641  6.1154785449
H  7.9274079643  0.2649102886  4.7283858355
O  33.9967096690  12.5904555441  1.2873380515
H  8.0740516346  16.0747039114  36.0375636967
H  34.6240841594  12.2071285638  1.9350119148
O  31.4100872914  14.8043382768  8.0628136688
H  32.0761293676  15.5545055051  8.0730405139
H  31.0683444183  14.8928841594  7.1490448686
O  26.7912876018  6.6421220812  5.7635694849
H  27.7358308276  6.8504787675  5.8215568858
H  26.7767450643  5.8948422895  5.1171398347
O  21.8327057503  14.0611063306  22.7796450575
H  21.4978390562  14.9079858077  22.4921264260
H  21.7598517149  14.0441079745  23.7900663582
O  24.5237709739  36.6340424780  8.9392144402
H  24.6794582108  35.7592090139  8.6064081503
H  5.1193044181  6.7492379644  33.9824075999
O  17.4385964719  5.7838890332  12.0647308745
H  16.7115375596  6.3354004992  11.8693940736
H  18.0423552868  6.2419019851  12.6219530614
O  26.0231172481  36.1474848190  3.8911994041
H  26.2658480889  35.5254603448  3.1961213503
H  25.0819693414  36.3458536799  3.9059629742
O  22.2523468786  5.7715472136  10.7060976229
H  21.9167964658  6.1455852008  11.5308907771
H  22.5002627974  6.5282262162  10.0908146242
O  8.5998278236  20.2307550737  6.9369258942
H  28.4536586025  19.1878847996  32.8805586219
H  9.1815256051  19.4964493715  6.7261587144
O  19.2462224584  35.6902642181  36.2985299284
H  18.8297483046  34.8592622688  36.7360037741
H  18.5036341457  36.2046311921  35.9224221663
O  23.5779151377  17.4932962391  4.4662783725
H  24.5213793969  17.7338749978  4.4616122697
H  23.5349333786  16.9607626093  3.6638577701
O  11.3451783497  37.0295089304  8.3528693494
H  11.9049617646  36.4212789972  7.8660980440
H  10.6953744260  36.4619002223  8.7493044342
O  22.2252909450  18.5916645701  15.6188514318
H  21.6252097686  17.8517271953  15.8555099413
H  22.9608355287  18.3792606355  16.1944774631
O  7.6515344412  19.4455444041  2.6589041069
H  7.3035156195  20.3494991900  2.9862671312
H  7.1435225847  19.4053920936  1.8076071682
O  12.9552779329  8.0984241678  23.7177579793
H  13.0945621603  7.1121035208  23.8995125861
H  13.7424561733  8.2804100136  23.1803566287
O  2.6154923492  35.4245032898  12.7749254178
H  3.4441285883  35.8727626430  13.0026113566
H  2.3808556703  35.9928329117  12.0003434026
O  16.3732899404  16.8292321264  12.3106055405
H  16.0614927817  15.9797808292  12.0159958632
H  16.2955850761  17.3472975756  11.5162467360
O  30.4225203445  7.3787083112  8.8864769572
H  30.3308032239  8.3184719309  9.2307637090
H  29.9017364557  7.4709361133  8.0585196454
O  35.3218892291  35.7139132228  5.9082894885
H  35.4236908183  35.2645001637  5.0360885419
H  34.4342940445  36.0626190301  5.8659697939
O  7.7048557472  22.4199430474  8.5381843722
H  7.5871833121  22.4056231381  9.5248516702
H  8.0181716829  21.5039308726  8.3629411333
O  1.3976352690  12.9374149896  13.5318813889
H  0.8322571203  13.0905042479  12.7475504792
H  1.7113061267  12.0151099091  13.3293896501
O  13.6712992248  20.3590610052  11.5917406812
H  14.0721519700  20.9513334624  10.9674516454
H  12.7660322651  20.5056452529  11.3223563627
O  27.9279364047  15.0105198701  31.0127319232
H  27.2989257666  14.4807133289  30.4933530590
H  28.4383408086  14.3772371359  31.4931855703
O  33.9478798914  3.3010657933  36.8309070774
H  34.1407283112  3.7629680069  35.9834155515
H  33.6942980323  3.9903944680  0.1561068036
O  32.5177422150  34.8524136682  3.5059556241
H  31.8653089003  34.1596856528  3.5971489156
H  32.0840945036  35.4917259456  2.8645250790
O  16.0069503454  33.8765972812  16.2244023966
H  15.7741738229  33.9502039382  17.1802661089
H  15.2845200422  34.3184618629  15.7589485198
O  13.5361980910  0.3795567731  10.6678108609
H  13.0083574077  0.3146956877  9.9044480508
H  13.8973091214  1.2704411596  10.7446513796
O  3.8278585976  8.2776336594  20.1455514505
H  3.1235435527  8.7975364560  19.6677192487
H  3.7225815002  7.3878747098  19.7118308029
O  1.9398753944  10.3263083358  13.1477800890
H  1.8728687418  10.0357171453  12.2274845755
H  1.5972990336  9.5628902783  13.6929929744
O  11.0353866626  13.1904979823  9.0135774334
H  11.3591292615  13.5029789686  9.8829435377
H  11.4219835998  12.2665519814  8.9578083735
O  32.9711300256  34.0024931091  7.4025546064
H  33.9492956133  33.9637283968  7.3047204611
H  32.6958978436  34.8232289546  6.9169859709
O  29.6207950485  3.5648880263  11.0022687834
H  29.0066202625  3.8901689473  10.3190254099
H  29.8779108308  4.3001662247  11.5688353311
H  33.4006567111  11.5320441289  37.2510769574
H  11.9966312235  16.4682911561  8.0242226211
O  5.0712500431  10.8863006918  3.8147048010
H  5.0923898726  10.2583176403  3.0831774402
H  4.5554400616  11.6553482879  3.4866930696
O  13.4547120881  1.8142258950  28.9977220794
H  14.1417413578  2.3446130113  28.5379973210
H  12.6663558151  1.9418130119  28.4669059142
O  20.8445245804  32.0401372634  1.0045526817
H  8.4723377948  25.2819824521  20.7293447484
H  9.4053641284  25.3719355598  19.5197171732
O  5.4218674862  7.0547303938  29.2693470968
H  6.0499710763  6.3460245349  28.9991098586
H  19.1971848227  18.9247689776  18.3348783374
O  31.1363023257  14.0244413931  22.3638013447
H  31.0445019122  13.6155738732  21.4831383291
H  31.7227565974  14.7538688214  22.1837276463
O  5.3457871074  11.4446963201  6.9512036801
H  4.6657389989  11.9311247630  6.4945008424
H  36.6330864993  19.8229356255  22.8006710469
O  4.6034042083  1.4460954076  25.1456262378
H  5.0783082886  1.7300878223  25.9217896978
H  4.8912430703  2.0691465786  24.3428105632
O  28.7544397286  3.5444391689  17.5710598701
H  28.4229670472  4.3135899900  18.0953790773
H  28.0141272468  2.9407451659  17.7396509925
O  12.2645168814  14.8351251018  17.9741997506
H  11.6409907249  14.5365394801  18.6957808009
H  30.2335014824  15.4492080665  12.6943834345
O  33.6791325504  17.3322669610  25.8795432592
H  33.7608017808  17.9549648252  26.6643177547
H  32.8360431401  17.7081831614  25.4491785918
O  13.4241545321  5.3135843346  24.0215739672
H  12.9928523098  4.7835208079  23.3118549461
H  12.7955120528  5.2239050274  24.7610887776
O  7.4763216196  14.0360769417  6.0293435015
H  6.7905768810  14.6891863705  5.8649984048
H  7.7516814696  14.0216494453  6.9775976717
O  35.1105680134  7.7424689115  8.6856362813
H  13.5083245552  14.0268122815  6.3166145382
H  35.9169297961  7.3389051092  8.3217292629
O  33.3556294516  12.3319113078  18.6877359677
H  34.0586823805  12.9596369504  18.5390476925
H  32.7692137649  12.5696977675  19.3865635050
O  8.5229830779  0.7360023182  25.5614613462
H  8.2643826719  0.7839132133  24.6420290801
H  9.4287427110  1.0875974101  25.5812994412
O  14.5324608084  12.4576688601  10.5538822363
H  13.7762240149  13.1379181442  10.6611361878
H  15.2064577209  13.0872149956  10.9866428986
O  32.9574740385  22.9416334389  34.8090601122
H  32.7398552529  23.7073731969  35.3578624485
H  33.9099881171  22.7762096186  35.0870714333
O  35.3500206703  6.8419458146  28.1148771984
H  5.6834219330  12.9772053033  12.7427458577
H  35.4434020923  7.6690296915  27.6015247426
O  28.1866818237  32.0627127895  24.5185231748
H  28.3714303592  31.4396280250  23.8098014325
H  28.1979332277  31.5096659726  25.2795974155
O  32.6460706793  4.8866715007  1.8240119060
H  32.5511669242  4.3615228681  2.6363889071
H  32.0074036091  4.4697580034  1.2182015148
O  32.5787350136  27.3215978087  16.6701879876
H  32.4580094702  26.9443642481  15.7611664752
H  33.5247490208  27.2033012145  16.9091238760
O  6.8385622456  9.0869046388  17.5496221427
H  7.2072908619  9.9426840093  17.2343094477
H  0.7937381128  1.3388410418  32.1738019155
O  33.6565068252  9.3349311106  24.0198156028
H  33.9119853275  8.5738148802  23.4452104147
H  32.8045397018  9.0431392479  24.4369694356
O  12.4016954349  16.2326093959  15.7861061664
H  11.5228156149  16.3628248354  15.2912672980
H  12.1017367487  15.7157530531  16.5640917527
O  2.9113067465  5.0813468362  24.1288813596
H  2.7747122246  6.0399124953  24.3290886450
H  3.1815223103  4.6297600505  24.9449566138
O  1.0058832952  4.6263458531  12.1746252308
H  1.5748449753  3.8666943194  12.4414949221
H  17.7155555646  9.8031550842  23.4907711017
O  36.0272989882  13.3208403282  17.6087300101
H  36.8259461423  13.8305402636  17.2840786448
H  36.4571491102  12.6464675515  18.1303323154
O  5.7128979847  20.8973568524  20.8055186845
H  5.2113251506  20.1376984129  20.3899184133
H  14.6055109470  36.2354127522  14.4134144090
O  11.2550020718  29.4403647102  24.5871209578
H  11.6827293885  30.2267243278  25.0603908963
H  10.5945859246  29.0042111262  25.1785175779
O  7.7938261489  15.5922555101  35.2481735787
H  2.5636550581  27.4519322452  23.2122061115
H  8.5886608724  15.5140468974  34.6862228645
O  12.7827928254  36.4124381345  24.0827990597
H  13.6757354827  36.0982681156  24.1983806326
H  12.7573695737  0.0898412229  24.2917980249
O  15.1121047859  2.5059638146  10.7586761411
H  15.9080383133  2.4701997593  11.3679090932
H  15.4378735993  3.1272360211  10.0678346988
O  28.6158867255  17.0465273448  16.2299449386
H  28.1494557860  17.6626814538  16.8915879308
H  28.6733764696  16.1561174579  16.4270924694
O  8.2333872278  22.0329184791  22.7964171884
H  8.7808244507  22.1286783777  21.9557413194
H  33.5386946875  35.6732304456  18.2387064865
O  11.1441951864  7.5403627491  9.0101301270
H  11.9854457696  7.1681941262  8.8234280326
H  10.7705404663  7.6431553073  8.0451175322
O  0.4049703764  8.3372595705  14.6366801446
H  36.7626701794  8.6963383440  14.7574366199
H  0.2499314139  7.3975343589  14.7591194813
O  28.6077881194  15.7519931024  33.7967558334
H  28.4027526402  16.7179620008  33.6022026671
H  29.5820217003  15.6970796914  33.7853992328
O  3.3040190758  11.2509268138  25.2917902768
H  35.0763045209  10.5361043410  14.7919782798
H  3.9005823769  11.3509571856  24.5563546795
O  9.1135156426  6.3573132761  10.9667869192
H  9.7836371035  5.8790456422  10.4543265838
H  8.2606982575  6.0820037580  10.5728107251
O  5.8301165994  9.1030734707  5.9369523434
H  5.7407786092  9.9070428031  6.5433959543
H  5.6266657505  9.5825833665  5.1140530737
O  37.0962003283  4.9193046406  24.4476709445
H  0.6279388633  5.3180631151  24.7388217576
H  0.1316460207  4.0279803632  24.0789389456
O  15.7896074723  7.6406183319  30.9277835951
H  15.1626805072  7.6279165721  30.1522949254
H  15.1498822115  7.9398410435  31.6002834794
O  20.1945006801  15.9553010101  3.9665747924
H  20.8857282583  15.8452208380  3.3148554257
H  20.5870447850  15.5108651022  4.7629850110
O  32.4772144717  25.4706916806  27.6695208835
H  31.9398611333  26.2840022512  27.8733297093
H  31.9518324528  24.7726894017  27.2271651799
O  0.0604860881  6.3058989447  7.7001210917
H  37.2327388566  6.0028832048  6.7167421321
H  0.2421759675  5.5150085038  8.2717727178
O  7.6133801636  22.7994459440  31.2963071480
H  7.2332761189  22.0075897799  31.8135481257
H  7.1777257301  22.8080763164  30.4489838975
O  7.2635510725  30.1339238274  26.9122595707
H  6.5403958627  29.7478690797  26.3738926065
H  7.6129936844  29.5096430826  27.6095067640
O  6.0950102873  34.1506265312  27.6467037728
H  5.2503349163  34.1427193279  27.1470544765
H  6.8174266123  34.4188759277  27.0686156547
O  3.7584717787  34.4676253863  26.2952892258
H  3.9776412889  34.8178183960  25.4440992344
H  3.1403014997  35.1144900524  26.6835780302
O  10.9335632425  8.3021196810  29.8080096755
H  10.3742449695  8.1511776631  29.0065201698
H  10.4979040987  8.9150352936  30.4524755613
O  29.3750346757  7.6804026777  12.0567783601
H  28.8659620336  7.9451698300  12.8343319550
H  28.8287293441  7.7460671623  11.2421536583
O  0.0226531055  0.0364937618  3.0084927612
H  37.0869137078  36.6476495423  2.3204378312
H  36.6098964339  0.7442258770  2.8619111181
O  18.4124488261  17.8798196395  28.8279903203
H  17.8806717434  18.4665465684  29.3618262624
H  18.8966002693  17.4198935517  29.5432751583
O  23.1627101716  32.7506208191  18.7197187952
H  22.2376559440  32.9759531526  18.5403026479
H  23.4025947755  32.6875896385  19.6498535161
O  9.2809880897  6.5760239747  23.3234033274
H  8.6805469123  7.2162797472  23.0413369335
H  9.0948445691  6.5396846391  24.3295634871
O  11.2220602552  34.0342800223  17.8989360375
H  10.4424489495  34.5554988731  17.5845013228
H  11.4245894210  33.4664107804  17.1024799720
O  5.4135368629  36.1855637712  23.9327858270
H  6.3292852207  35.9123089408  23.8754987618
H  5.4779527959  37.1310335719  24.1890270205
O  33.8400123422  35.1995810569  23.6101918516
H  34.6604260771  35.7271188054  23.3647224551
H  34.1174358392  34.3526102985  24.0158210959
O  33.8427319364  18.8503866132  1.0198938073
H  34.0982360805  18.6788491332  1.9117530110
H  32.9027634486  19.1406314622  1.0761476358
O  1.9446725684  16.1204532223  19.5336056951
H  1.6668207110  15.4384070737  18.9821564768
H  2.2336627895  16.8010365124  18.9222930649
O  21.7859007621  10.4542863414  11.0546988303
H  21.4948881700  11.3391953295  10.7581615866
H  22.4736962071  10.2324190246  10.4230509876
O  12.1613897511  10.4272364582  8.4406546493
H  11.8592844005  9.5591686561  8.6800807901
H  11.8176097574  10.4695364044  7.5304859886
O  4.0926167936  5.5612263583  8.6267411009
H  11.3023689422  17.7635675992  7.8678391809
H  36.6870577199  33.3428254310  33.0509648725
O  13.0220290203  3.6397655210  22.0686045174
H  13.9717093534  3.3039968149  21.7501585460
H  12.5372531564  3.5400273977  21.2292921815
O  17.2722411437  6.1842438574  15.8886278346
H  16.3854156487  6.1606820953  16.3635976280
H  17.4469698280  7.1082734956  15.8426615113
O  16.3147351770  36.2326470649  26.7717270390
H  31.9138823606  28.5353694981  8.9064883844
H  33.2786529658  28.0771921125  9.1002563956
O  12.4310052192  27.5210755977  27.3247176668
H  12.1213279437  26.6851189657  27.0119120413
H  4.5204575778  6.9260232277  28.8095839177
O  6.7826742732  13.3533427545  25.0958969296
H  7.1600056798  13.2602794356  26.0045845567
H  5.9125977799  12.9301981965  25.0545566816
O  18.0057040855  33.9450122030  7.5611862475
H  18.0046317702  33.6008931447  8.4751913308
H  3.2868485843  22.3320196138  19.7167411732
O  32.4180203205  18.6164376319  19.3348376406
H  32.3072071199  18.0495926417  20.1154134511
H  32.3963656694  18.1181643450  18.5196102866
O  21.5108505026  12.5763133103  2.1400186786
H  20.5959586446  12.7981344419  2.0830645739
H  21.9703467692  13.3605025091  2.3596777041
O  15.2007850575  23.4272201397  35.5075325902
H  14.7144371994  24.2505352676  35.4771463430
H  30.6334044636  24.4348837029  2.1182590602
O  4.2790229665  35.5545564007  2.9336032449
H  4.2819866023  34.5924798969  2.9224668504
H  4.0933233387  35.8983910070  2.0336998425
O  29.1366607093  4.1011769701  14.7922854050
H  29.7331939700  4.7049713955  14.3569891464
H  29.1844150351  4.2526133284  15.7356763399
O  35.8440423500  20.9900469051  1.0244146675
H  35.1582435387  20.3624809033  1.2768401404
H  35.6605649016  21.1096542491  0.0469819803
O  9.2813892171  7.2158802545  33.9269078357
H  37.0589194686  10.9126857487  23.5438225330
H  9.1583888958  6.4242467712  33.2984829494
O  5.2453521543  15.4940644158  26.0889245985
H  5.8841920962  16.0630726736  26.5134806315
H  5.7730542181  14.7025654427  25.8038008878
O  3.9710843285  19.1680925795  6.5765055354
H  3.7619222536  20.0525660765  6.0986204177
H  4.8112427906  18.7802990030  6.2840612271
O  34.7247468627  13.5044169840  23.0880005296
H  33.9758148754  13.9892730144  23.5335010975
H  34.7800785701  14.0618248112  22.3018587905
O  10.7828814534  11.6035385083  32.8974964302
H  10.4461275363  10.7514422828  32.5792178712
H  11.4746797329  11.4075981973  33.6167712023
O  12.7947824031  1.8023422091  24.3615871406
H  28.1294532451  8.0342251101  29.7394055738
H  13.1305776125  2.3767943732  23.6591509815
O  18.6957415664  10.9049332198  37.2526565165
H  17.7369655985  10.9881417026  37.0817136522
H  18.8182146450  11.7455158773  0.5176882535
O  15.8593142452  12.5651711483  26.7912167529
H  16.3864324733  11.7320887130  26.6358279495
H  14.9766467230  12.2909770213  26.9564917164
O  12.6999606743  20.2657184489  22.9795520521
H  13.1959504169  19.8323110448  22.2918873951
H  12.5275663639  21.1944363494  22.7358145700
O  0.0017207725  1.7117554641  32.6650856881
H  0.0885562712  1.3077810844  33.5206362061
H  8.3689872161  2.4818037744  22.2231384551
O  32.1103607410  12.3017597351  24.1622594768
H  32.3666427760  11.5231734497  23.6129474025
H  31.6907473341  12.9633068584  23.5497590856
O  0.2761661122  14.7121625652  26.7107517623
H  36.7626419178  14.1239312046  26.9246066071
H  37.2123996009  15.2519691980  25.9838625822
O  16.9777298702  11.8314305501  30.3921668211
H  17.7092648907  11.2577757091  30.7038259024
H  17.1598978802  12.2242090614  29.5171472097
O  21.3250941253  4.4326379546  28.2999015113
H  21.6608378069  4.8135610951  29.1505402182
H  25.2553916179  4.9751009529  31.5457686231
O  3.5070019082  17.6005845900  33.4574262901
H  2.7410246007  17.6741432808  34.0778085037
H  3.4881784947  18.4949090227  33.0361553235
O  2.6015079513  32.9160717530  33.4121585042
H  2.8771687539  33.2411987209  32.5319592388
H  6.5402461076  20.6105046951  21.1845669274
O  12.4234217638  14.0533991984  27.9790898853
H  12.7804258500  13.1458036960  27.8505052034
H  11.9917255177  14.2328432270  27.1211836114
O  1.9651374569  27.4436846959  23.9535731673
H  33.1296929996  12.6274991247  1.7609051862
H  2.5225556617  27.7323665118  24.6746362713
O  35.4151922897  5.1376041003  2.0919157345
H  35.9164736948  5.4954916106  1.3353031647
H  34.4954302476  4.8939708447  1.8936228354
O  19.0137510314  20.2292425584  30.4024719026
H  18.8903733925  20.1056806458  31.3700196899
H  18.6310856860  21.0905914817  30.1521380136
H  15.3615252970  30.2727865044  19.2755102748
O  16.7685301884  16.5021337455  26.8364383378
H  16.1820651446  16.1051471906  27.5423624694
H  17.4865717992  16.8618643122  27.3408486193
O  31.8041200828  14.0489851697  33.9430289219
H  32.3375700459  14.8416999152  33.7841587131
H  31.4865915468  13.7966148914  34.8435460779
O  35.0132933438  28.3240595548  28.7431481612
H  9.3265802487  1.4480260293  12.1598153539
H  35.9506639252  28.1801946066  28.4920254321
O  33.5331258568  28.1800162959  19.5558415470
H  34.3907147609  28.1898734946  20.0335418423
H  32.9369147183  27.5878677816  20.0634194964
O  32.0614965709  6.3655579496  34.4675528359
H  32.2703225916  7.2044179443  35.0055581015
H  32.7778183192  5.7674554848  34.7681340649
O  5.6276792070  13.8037462645  0.8121407797
H  6.5089373287  13.7814158476  1.1852599576
H  5.4053686262  12.9901001908  0.2771348244
O  1.6681971410  14.0002258097  1.2563762315
H  1.5936597735  13.5626530611  0.3674451440
H  0.7874227899  13.9155542573  1.6734210074
O  12.2803773056  21.9507619601  32.4159706317
H  11.4248395096  21.6595634978  32.4466531206
H  12.8232887638  21.3538166806  32.9623661796
O  5.3272960140  19.5702350483  27.5764542405
H  4.5051388110  19.0269314291  27.6043678418
H  6.0573891743  18.9503756122  27.4056059147
O  22.5560921090  0.9567544790  29.6647312354
H  22.3939203598  1.4899383564  30.4823497381
H  23.5330696796  0.9120109160  29.6419686701
O  15.1321459234  9.7239465970  8.3787151627
H  14.1784142406  9.6477191971  8.2335548356
H  15.4693600566  8.8783179832  8.1094721969
O  31.5520557747  1.8732706551  9.2602797992
H  31.4428901732  1.1305558464  9.9194961320
H  30.6941095496  2.2974268428  9.3359687802
O  6.0416833820  22.2223206041  26.5429554510
H  6.6733492337  22.8068950772  26.1645122135
H  6.4839974204  21.3432626322  26.4179582071
O  20.4929450138  26.8412816714  34.5923938668
H  21.4692841192  26.9689819107  34.4355886356
H  20.4101407061  26.1489135094  35.2929554424
O  36.5666887202  21.7703560442  28.1775365609
H  36.6355655303  22.4687378341  28.8800241404
H  36.6888180682  22.2502238142  27.3725977801
O  8.1825957862  20.2414965400  29.4826419069
H  9.0988855818  20.4908653942  29.7049153095
H  7.6555138759  21.1618607704  29.5797375006
O  3.8266082116  28.4157269441  33.3998267768
H  3.1563261908  28.8200354290  33.9357434276
H  3.7151633157  27.4129681435  33.5629722993
O  9.1249968345  31.7389895023  35.6700234280
H  8.4409833761  32.3690722183  35.8867790066
H  9.9285415143  32.2624806055  35.7632880701
O  24.7084933139  33.9691946775  0.0423540260
H  25.3410615569  33.9853598065  0.7731058945
H  24.5883383144  33.0410922123  37.1267565887
O  12.6485878825  11.9763981935  35.0651793046
H  13.6239887738  11.7583057936  35.0190809173
H  12.6523615058  12.9792110647  34.9748674818
O  36.0191293553  6.2431592708  5.1395799540
H  36.4895181690  5.7260008195  4.4494619166
H  35.0879552978  5.8788357853  5.1348527601
O  5.2158957276  2.9981936238  28.6004270267
H  4.8650991020  2.0734598063  28.6947584680
H  4.4973511675  3.2444255567  27.9420616294
O  36.0953345083  15.5092767571  13.6202919996
H  36.8703918039  14.8793550894  13.6104536521
H  36.5183265714  16.2437774369  13.0787084661
O  34.0442950786  23.4705840482  1.5817973458
H  34.4392644935  22.6362084067  1.4157897664
H  33.7788004918  23.5663951597  2.5104198492
O  29.4529720756  10.7376512515  15.4595001545
H  28.9675682585  11.4154345831  14.9245053404
H  30.3276863206  11.0769204158  15.5061546943
O  13.6094613242  7.3430214712  8.0963003078
H  14.2000112117  7.4218226412  8.8719176476
H  13.2816351876  6.4231358878  8.1067434766
O  35.2567213518  17.5933921970  36.0647480438
H  35.7968977288  18.3963730175  35.9772103521
H  34.7302058306  17.9608944002  36.8524836096
O  20.7479392122  33.6776349539  7.5401227102
H  0.8333909038  32.8651058813  33.5906171967
H  33.5363298718  11.2314683658  35.7598756084
O  31.3802711770  23.7142886013  0.7597884469
H  31.2551268544  23.9602690477  37.0696945270
H  32.3468169418  23.6737913930  0.8278180543
H  1.6035327408  14.2441944082  16.4753405308
H  0.8475328755  15.5671130352  16.4312998418
O  14.7284354625  15.3590035416  28.7311120581
H  13.9147457821  14.7906544872  28.4320363021
H  9.2678760704  26.9665561475  1.2306632121
O  13.4244548238  23.5683843225  30.4009858671
H  13.0993248937  22.9929784102  31.1124310144
H  13.1499011444  23.0833291483  29.5653862155
O  0.6516822665  14.4563210208  34.2204564533
H  0.7296703726  15.3779757353  34.4733428088
H  12.6267098223  32.7057057694  4.2520661771
O  33.3272353140  14.6184561280  25.7393069498
H  32.3770354291  14.5213388368  25.9440677046
H  33.4001471784  15.5803992051  25.8292675306
O  13.4779795331  21.2612182969  14.6909880479
H  13.7247356123  21.8823314026  13.9511137628
H  13.8059259965  21.7401134895  15.5023991679
O  7.6479309549  22.2971728637  11.1936371566
H  7.0503507791  21.5686737312  11.6013969724
H  35.4052184930  16.0661277891  15.3536492636
O  3.3701983769  14.8362812973  9.4283002519
H  3.0919621143  14.8823890331  10.3719977691
H  4.0823856301  14.1804252681  9.3874044126
O  29.7648579421  17.5229814994  7.4372639588
H  29.2036351064  18.1965067514  6.9640601249
H  30.6477592289  17.9954412203  7.4631980795
O  21.1893039458  10.4444396123  33.0598146382
H  20.6701204003  10.1258745535  33.7953299356
H  20.4659853799  10.6315694804  32.3800595735
O  34.9982269660  15.0075037113  36.9487801187
H  13.2306664356  28.1475376600  15.9431605582
H  35.1139640614  15.9437623371  36.7588017377
O  1.3394450515  18.4213524306  20.9524183017
H  0.4453639742  18.3623080598  21.3976564965
H  1.4811875077  17.4793603261  20.6538793076
O  30.8840696368  21.5783029656  3.6185220637
H  31.0252687626  21.9105495247  2.7207599139
H  30.0298807883  21.0840847579  3.4827964839
O  2.9828346310  12.8217036332  6.2598401079
H  2.3505381918  12.9899168561  6.9523154907
H  2.6745882565  11.9508793907  5.8628413379
O  9.6392797820  24.2104581455  7.5773103100
H  9.2490316442  25.1031929432  7.7885221855
H  8.8910623073  23.6268534252  7.8505959213
O  33.1707716672  8.4792261379  20.6839230787
H  33.2353652520  28.8035394461  34.5553585974
H  32.7159662215  7.6530222995  20.2997063840
O  3.4497480465  21.5538477415  5.6319999251
H  4.2116882851  22.0449824479  6.0506048603
H  3.5668237410  21.7782462223  4.6869365007
O  0.4923984285  2.6512526557  6.6227361683
H  0.3755995531  1.7161095172  6.2951072386
H  36.9477078728  3.1331217096  6.7388476269
O  19.0056161536  7.6905547601  13.1418219360
H  19.1358670436  8.2335289380  12.3445402147
H  18.6208160566  8.3072484745  13.7620761047
O  6.4277116136  30.5410861198  0.0271234260
H  6.5395962229  30.4886378450  36.3234193254
H  11.5811329613  18.1675546236  25.1128793661
O  3.1104035614  11.6002609504  30.7268087740
H  3.7633400506  11.9997627503  30.0994393372
H  2.9200209780  12.2775531915  31.4327943799
O  22.4148093469  36.5264465669  1.9142644883
H  22.2594430145  35.6428903299  1.4157777075
H  21.6262058350  36.9671148042  1.6901724735
O  31.0130460686  36.5688090331  1.5177401843
H  30.1540758116  36.4702914608  1.0057607738
H  31.6780778919  36.8396714237  0.8732237299
O  7.9301354696  16.4704593330  10.0886374559
H  8.4355634088  15.9389894777  10.6828829702
H  20.9143506487  4.9014870527  9.6158459143
O  31.7833082264  6.3459862038  18.7952949645
H  32.7889223313  6.2647850301  18.8373245898
H  31.6782103503  6.6011633119  17.8905339963
O  28.7352531972  29.4345111962  6.8298456673
H  28.1630669017  29.8801006721  6.1742007910
H  3.8798199646  27.0562225666  27.3478128077
O  31.1496018378  19.5977228446  0.5867675040
H  30.9154125099  20.3712955785  0.1286563211
H  30.9483309795  18.8530461274  0.0580945392
O  35.9462607173  16.2953243872  31.2490092332
H  5.8987745346  19.6100357868  12.3236912098
H  35.5398780932  17.1666576965  31.0308867859
O  3.2366774138  22.1195202262  36.3397029703
H  3.7318144156  23.0087241410  36.6093222035
H  2.7646073925  21.8264255300  37.1168251388
O  36.1320392468  24.7161749238  3.4027202925
H  36.6848914739  25.1369559345  4.0832760488
H  35.4105729551  25.3770470044  3.3782988175
O  34.7172781163  28.5577102452  9.8646995631
H  34.9994161829  27.6171010626  9.8992244456
H  35.5050286806  28.8557624498  9.4041626159
O  5.9573694396  16.7977492793  33.3610858690
H  5.0775217053  16.9801478084  33.7514163001
H  35.8627466562  7.2081279692  31.5837356700
O  36.9153315803  28.8363563033  0.4959750121
H  36.8801672754  29.7173671748  0.1319647321
H  0.5883056755  28.5646744182  0.3306382649
O  7.6613975706  7.1774533437  6.8082363190
H  7.5419946199  6.3716697229  6.2603894617
H  7.1489480553  7.8373989449  6.3927301519
O  14.0130105705  33.1267710546  34.2220428857
H  13.1944031585  32.5933325553  34.0678439007
H  14.6582434824  32.6017019299  33.6910922508
O  3.8599328164  30.4101884152  10.5341168651
H  7.8714891584  20.0654238458  6.2941482519
H  4.3816585698  29.5934988367  10.4345980230
O  20.3282833582  13.5685443121  12.3254716866
H  20.7120714583  14.0533471926  13.0457523208
H  19.8235816760  12.8030307816  12.6846364497
O  9.9982801183  30.9106684474  2.5555622618
H  10.6768485868  31.5401615870  2.8061439943
H  9.7631817454  30.3384693608  3.2728037490
O  1.7002391231  12.8933904810  36.0657790434
H  1.2741043652  13.4293750146  35.3992512139
H  1.3356460162  12.0218839495  36.0284469608
O  8.9344024264  13.6135209628  18.2482425831
H  8.9755686374  14.4756201227  17.7396211667
H  9.8308202951  13.3876355690  18.6658620526
O  34.4418376181  15.7084415673  5.4924486139
H  34.0569541768  16.4457160948  5.9855545969
H  35.1477002605  15.4204343278  6.0939560375
O  6.8921986106  24.8440998927  11.7785490024
H  6.5588242278  25.2943793549  12.5216427242
H  7.6041792302  25.4618216570  11.4162485560
O  10.7320659041  27.3537969023  29.6905330408
H  10.9246891084  28.2086735427  30.1518620514
H  11.4943413610  27.2493319707  29.0564722351
O  35.3327093451  12.6600201578  5.9998791307
H  34.3828581840  12.6118561571  6.1902776904
H  35.7037290905  12.0674707016  6.6685635320
O  0.7305488985  17.9831072604  2.1800657785
H  37.1608431332  17.6787304923  2.3811927917
H  1.1177132235  17.9236176019  3.0563345223
O  2.0561302958  23.8028178550  2.6420214128
H  1.9627776076  24.3251881884  3.4448333645
H  1.7674086458  24.3227430904  1.9196753505
O  7.9920574149  10.0600006945  0.8276470895
H  8.5636897739  9.6577364824  0.1574961788
H  8.5599032906  10.5524801336  1.3602083020
O  34.1521704077  23.6350795970  12.9322023971
H  33.4650886704  23.6164986367  12.2220543942
H  34.6652769127  22.8034427150  12.8280652611
O  11.4236005885  0.6550851338  4.0708702607
H  10.5211787576  0.6163522258  4.4220166655
H  11.5645559361  37.0330271581  3.6380932786
O  7.4498695176  3.4175904211  8.4259137614
H  7.7047842000  3.5515305752  7.4430677931
H  8.2382929330  3.0020222977  8.7205598552
O  36.3903900066  32.2619093602  4.6091623580
H  35.6737750592  32.8385761209  4.3438123588
H  37.0390684607  32.8056938958  5.0694623560
O  31.9035042354  8.7898515966  11.3535801709
H  31.0726359137  8.3745283536  11.6938396625
H  32.7477791389  8.2095365675  11.3172250337
O  5.3426057997  32.5001920527  9.8430121912
H  4.9436872729  33.1953753764  9.2292395607
H  5.7148808592  32.9405893006  10.6449805449
O  9.4990917304  10.2957122757  9.7261755284
H  8.6747205240  9.8194238540  9.5347193423
H  9.2435532334  10.9639915603  10.4116969072
O  33.3474079838  19.9274296022  22.9761108114
H  34.1251712981  19.7033141716  22.5222453351
H  33.5929022727  20.3577846964  23.8070749102
O  33.7863737278  23.7579165712  15.6896750062
H  34.6598811575  24.0304194079  15.9037381496
H  33.8427822513  23.8457526068  14.7396837701
O  34.0691260529  13.5764615338  13.3556720322
H  34.2699774130  13.0442220100  12.5620323324
H  34.5898486367  14.4016366355  13.3435616674
O  1.1441655186  8.9924843167  32.1599679930
H  0.7809553846  9.8928796150  32.1479352536
H  1.9304005738  9.0473835750  31.5328063265
O  3.2802898842  15.0571883680  4.8327432579
H  3.4253774583  14.5972057761  3.9138011698
H  3.1319382609  14.2770077074  5.3688857683
O  32.7515188055  19.4009004887  5.6545588604
H  32.1110067290  19.9415501336  6.1794744271
H  33.2578627406  20.1360355245  5.2571900503
O  7.3909817432  29.5494251994  11.3677396202
H  33.5738748724  14.7664273016  4.1459844829
H  12.0908728614  32.5123000767  15.0818276131
O  4.1417267932  24.0790810364  21.4006018240
H  4.8175836904  23.8606427868  22.0404315978
H  4.3434402492  24.9498091459  21.0313548338
O  13.6993964870  0.3813198553  0.9431606563
H  13.5801009233  0.4978519632  37.2192570921
H  13.2890756417  36.7927997524  1.1183184204
O  26.1761196629  26.4279288144  19.7480875001
H  29.2350429124  14.3912286648  22.8032874016
H  27.9701573094  14.3109637818  23.5831527468
O  27.9816705866  19.6677253379  28.9932122565
H  27.0418335288  19.8321788754  29.3580234901
H  15.0078122716  14.9435419156  29.5626880726
O  6.7385571439  32.0983465784  14.5196675373
H  7.6459334561  31.9129650577  14.2690184914
H  6.4138306509  31.1622496296  14.6654443011
O  36.2558318869  19.3342916477  21.9861116711
H  36.3126026888  20.0224203172  21.2945498677
H  6.6095675218  33.7828776370  22.3967873497
O  10.6575409198  25.6785101806  31.8562357221
H  10.8354003212  26.1229660183  31.0364532183
H  10.9191831401  24.7648822866  31.7251242675
O  8.0654150328  27.8637652728  28.4933453818
H  7.6878874904  26.9151012443  28.4902874299
H  8.9621544684  27.9118704807  28.8482237669
O  21.9167954787  20.3379632044  5.0526945179
H  22.7714570164  20.6757809105  5.3251458518
H  3.2207855795  24.9401806990  33.5355910370
O  2.2268939024  20.0032084616  17.6134873672
H  2.5019082343  20.3412012322  18.4857466807
H  3.1609020437  19.8438591669  17.2055304737
O  16.6147851655  33.1095733811  26.4616406375
H  15.9731577267  32.7892911903  27.1530252332
H  16.6327310094  34.0964675896  26.5130720361
O  2.4573377999  9.0917338667  26.8448441153
H  1.7041740354  9.3242836982  27.4329636023
H  2.6341238757  9.8788107088  26.3032330872
O  32.0341337029  21.3880860511  31.7692085013
H  13.7343302483  25.9450504099  17.2196542956
H  31.3058416550  22.0089474756  31.8675690498
O  4.8580135070  4.0765867685  11.9100083719
H  5.6085649833  4.1265938268  12.5522359915
H  4.4286764353  4.9191240640  11.9673879839
O  36.0471613144  25.2911339362  22.4874465204
H  35.7847945059  26.2006148823  22.2966245714
H  36.8990450376  25.1444169986  22.1077422489
O  5.0259973104  10.4603150114  23.5051349296
H  5.3569606954  9.5773682652  23.5491194526
H  5.4941218336  10.7954038117  22.7384652563
O  1.6079812972  20.2642096166  28.3037865613
H  0.6693826307  20.7151433808  28.2442150927
H  2.0245676966  20.5516399642  27.4619395327
O  5.5752441805  13.8499448867  13.2373838731
H  14.8071306396  28.9999481807  28.6430928279
H  4.6400270511  14.0907302464  13.0751019423
O  12.0603125003  21.0512867095  36.1526562721
H  12.6221190037  21.1113031966  35.3978356944
H  11.7443267897  22.0057568470  36.2903985788
O  35.6371906446  1.2305560329  25.3689571632
H  35.0109947109  1.3235582474  26.1242004388
H  35.4597217256  0.3755897003  24.9821270906
O  5.8766130633  18.2466951903  23.9766175514
H  5.6215092180  17.4971674116  23.3502305020
H  6.6414573510  17.8027680614  24.4132637238
O  12.2447318043  17.5362847643  25.3759427398
H  13.0203453217  18.0736964222  25.1627322071
H  4.8932603779  17.6687684229  11.7318108268
O  2.2654409749  33.0364490430  10.7317384062
H  1.9346142930  33.8619454127  10.3761578425
H  1.4911663371  32.4478724420  10.6202809792
O  23.4216715077  17.6316864741  23.8689356966
H  24.2421899551  17.1899570423  23.9795739214
H  23.1496828443  17.2244398104  23.0531514624
O  3.8051796478  8.7348991151  10.5480612457
H  3.3965264889  8.6645748120  9.6753858893
H  4.4256354912  9.5135587167  10.4714486711
O  30.5854220867  15.4269289009  0.0968483317
H  30.4476901132  14.5897206239  36.9058958571
H  13.7137117689  15.4771619724  14.7515731118
O  33.6858218414  11.2615776213  26.2890851430
H  33.1761826545  11.7551056166  25.6117881701
H  33.1987138185  11.0159814626  27.1117785113
O  16.1318934586  4.8389235383  24.3723188282
H  15.1856739729  4.9801259885  24.4622345151
H  28.8896029033  30.1731943573  7.4388643388
O  8.4825327060  12.1684425413  11.7824585937
H  8.6646066598  11.9547414330  12.7088533372
H  7.6098679101  11.8124078808  11.6956814057
O  5.9070119888  20.5349784019  12.6855619075
H  19.6514488262  16.9770286750  15.4356258757
H  5.0461358194  21.0248585756  12.3688075822
O  11.0516218414  15.8786107865  36.8119169883
H  11.5676808922  15.8624002836  0.3602994095
H  10.1822340688  16.2476122406  37.0929120850
O  25.9680620177  28.7440305717  23.9314200820
H  25.0683917883  28.8912201638  23.6224573682
H  25.9302462094  29.2246860014  24.7645513390
O  0.0425002708  18.6021532164  26.2369368350
H  36.7437930947  17.9924812858  25.6788412338
H  36.7951677486  18.7165993227  27.0300557870
O  15.4037795149  16.3451360828  7.6293018723
H  15.3756512185  15.3988941627  7.3148068150
H  35.1011170965  12.6533640738  16.3130128541
O  2.7780670899  22.0112043558  30.0197171063
H  2.4360562923  21.3759366027  29.4048233077
H  2.7398847525  22.8588787062  29.6088501687
O  16.8223108948  10.9144393133  6.8526794468
H  17.5410402121  10.7825400547  7.4732501110
H  16.0536023945  10.4001993008  7.2993144852
O  11.6140949427  32.0056087459  33.5012587665
H  10.8649947227  32.0264659404  34.0740962872
H  11.4528411186  32.3471786416  32.6065814805
O  29.5794705007  16.1168814930  29.2156349895
H  2.6651610142  11.9910055142  25.1289987122
H  29.1290811935  16.6884910443  28.5506080305
O  36.6198291576  8.1450878153  23.7787697232
H  36.6493995083  8.3139452334  22.8092280332
H  0.3231404669  7.9601490195  24.0639226733
O  3.4085482315  20.3470571165  32.8724676689
H  2.9928968208  20.1209302744  32.0042746666
H  2.6957651796  20.6487842435  33.4967482175
O  5.4592867707  28.9971267002  25.3305404469
H  5.0060574916  28.2826310355  25.8237283015
H  5.8337236436  28.4284040771  24.6631808613
O  8.4423621567  32.2291709950  25.8754971205
H  8.1493544149  31.4236599535  26.2900980116
H  8.8333853101  32.0744863135  24.9785740782
O  2.4800273538  18.5864625860  23.8557594993
H  2.3331214727  18.6845516392  22.9302076969
H  2.4942051264  17.6387289392  23.8774342263
O  10.3358890483  15.6545295160  22.1621587032
H  10.3757593913  16.5598645005  21.7969139555
H  11.1273370670  15.5708745420  22.7360699350
O  18.3167578238  22.0001751936  26.9798480763
H  17.4011550378  21.6730564186  26.7617558940
H  18.8100505178  21.1336910858  27.1447170083
O  25.2326986328  20.2923497286  15.8254955896
H  24.9510140562  19.7063153914  16.5556018950
H  26.1422829204  20.0790137280  15.5573668217
O  27.4443096861  18.7155994092  9.4759361562
H  26.7412579674  18.2650848265  9.9999196451
H  27.1539724312  18.8493303126  8.5785374947
O  2.9899367377  28.9942483496  30.7799884212
H  3.3628227754  29.8528980492  30.5370930157
H  3.5087657547  28.8277418267  31.6029490924
O  19.4690746765  29.1957055651  31.6241456028
H  18.9774369216  28.6488857411  30.9796408789
H  19.3522110072  30.0616546720  31.2204828483
O  2.1517952903  35.5850760340  28.3076156596
H  1.2656846094  35.8325125903  28.1601554543
H  2.1219354848  34.6597181070  28.5829077001
O  2.3499838028  9.8562588376  16.3876016773
H  1.7019985515  9.4410663439  15.8207301287
H  3.1799242200  9.3764729124  16.2360337242
O  0.3678524456  2.4657825131  23.6391156406
H  0.2563264015  2.5014164094  22.6524294394
H  36.9872535820  1.8102311146  23.9539624066
O  29.5650036054  29.6369941573  21.8839483335
H  30.1410170191  30.3278229458  21.4651803292
H  28.5796950428  29.7996579787  21.7292672224
O  14.7412950827  17.0262871381  10.2738165262
H  15.0047078476  16.8090950614  9.3665433471
H  14.1599585200  16.2956910449  10.4725413196
O  17.2335092948  33.4956886724  12.0727231355
H  16.5337993953  34.0740335959  11.6941952842
H  17.4342792239  32.8821394537  11.3623839622
O  33.8756919131  11.2658431735  21.6660617348
H  34.0411456701  12.1171113094  22.1545133333
H  33.9591371182  10.5797090141  22.3721648226
O  3.7068966855  7.4970362280  6.4454780469
H  4.5198196506  8.0952229135  6.2793016484
H  3.0286877546  7.9889046638  6.9875616973
O  1.5074437123  16.2068676137  30.7135471765
H  1.6588600767  15.9186780398  29.7770412404
H  1.9725210932  17.0409575625  30.7676135852
O  32.8628931493  30.3212734715  17.9689462733
H  33.1169570191  29.4392767168  18.3937908073
H  33.1663654822  30.2159481477  17.0630858783
O  27.3231651202  17.6213481442  21.7651579692
H  26.5816069179  17.4937469822  21.0996345399
H  27.4831620877  16.7419144071  22.1596788096
O  35.4946247138  9.0257742654  26.3953072788
H  35.7616530179  8.6273077935  25.5601286067
H  34.8452903477  9.6796708701  26.2242614938
O  9.5369863630  27.8129342573  25.7603035468
H  11.7347933631  31.8159371732  16.3360061679
H  23.6112990657  8.7491197428  24.7300403692
O  33.5305884819  24.3873946330  25.0707424640
H  34.2587411617  24.2771529383  25.7134949357
H  33.6525368586  23.7059845257  24.4285943307
O  14.6229777612  8.8857864758  16.6279949176
H  13.8455377437  8.7170069158  16.0470671803
H  14.2687487787  9.4902150136  17.3162057001
O  24.4591694614  18.2939494049  8.6496425113
H  32.4850124330  31.0749706488  30.9380889434
H  33.8940672661  30.6899464210  31.5254899757
O  9.6865915504  26.5118903130  1.9167129527
H  9.0126479515  25.8747861131  2.1956036805
H  28.4427029466  19.2335474779  29.7012832027
O  32.0713918645  24.1524676101  17.8525280478
H  31.6745521229  25.0174708175  17.8263388942
H  32.4763219370  23.9803972685  16.9736278657
O  2.3788805626  21.9992481477  19.9391695309
H  2.2438878704  21.8383742353  20.8785782682
H  17.6246219667  22.3202695647  21.1562323467
O  18.2821445167  29.6101137853  21.0038081083
H  17.6246516879  29.6117593315  20.2697050996
H  17.8824515180  29.1173487984  21.8198393646
O  13.5578585278  11.6534060526  13.2393731839
H  13.6029758178  12.2567179034  12.4929865389
H  14.4646556246  11.4780499002  13.5255168504
H  0.5267458656  21.2056210389  23.9108148625
O  13.1795448716  8.8105254361  3.1802836691
H  13.0511858244  9.7383786227  3.0734370650
H  13.5131973807  8.7153046260  4.0727884133
O  12.6877056979  27.2710981421  33.0747914079
H  12.0411375950  26.6899396897  32.6662738406
H  13.4250116679  27.4374106635  32.4485731554
O  30.1905138220  1.8827367822  2.6010596878
H  29.3960659640  1.6054552947  3.0882016392
H  30.5730737253  1.0790847944  2.2870644987
O  24.4288425111  24.6188065220  23.8924427715
H  18.0063684657  22.7415903526  28.6948507998
H  23.5249572501  24.9343409304  23.6674430530
O  17.5027526318  10.3241688262  26.0259228424
H  18.2917213220  9.7690033228  26.3025545166
H  16.8244323788  9.7104125395  26.3542573248
O  17.3869545412  12.7977534082  3.5134522000
H  17.3152518188  11.8619593542  3.7450966103
H  16.4525908701  12.9961081349  3.3591116731
O  21.7204106834  12.5864919612  8.9971131272
H  21.8782629921  13.4684285664  9.3452490189
H  22.2795180346  12.6133474154  8.1777122026
O  8.4700602794  16.0848287570  17.1795532543
H  8.6187201128  16.0469463219  16.2453295890
H  7.4819537515  16.2671617114  17.1600696362
O  27.7007949666  8.3086635556  28.8710812583
H  34.4321808812  27.5186444536  3.9843944032
H  28.4189734884  8.8986443348  28.5297456581
O  13.9193700978  17.8252246146  6.0529556328
H  12.9696440071  18.0178063655  6.0762850371
H  14.1144932590  17.3436820107  5.2179164970
O  30.7764769203  11.6301353240  29.9956148690
H  31.4080539318  11.4273631092  29.2729082795
H  30.5328518044  10.6636515130  30.2017369290
O  19.1210951183  9.1551729979  2.3559235847
H  19.0251847337  9.4730203480  1.4044102348
H  19.6907933606  9.8224743347  2.6893564671
O  4.0412893374  18.0942550027  11.5951879286
H  3.7970783103  18.1406785695  10.6419731745
H  5.9440220425  29.7084991413  0.3401275913
O  16.3341841686  18.7691692960  36.2506811212
H  17.0163403362  19.0694771724  35.6312639003
H  16.7639985601  18.1211473529  36.8478947260
O  18.7608298571  25.3264209514  32.8647471802
H  19.3003108386  25.8771752335  33.5118764071
H  19.2861263755  24.4956390780  32.9725254329
O  24.2532919839  27.0539923930  21.4878843716
H  23.7641073204  27.5207535342  20.8042644491
H  24.3009465121  27.7640752100  22.2021998363
O  5.3741091988  14.4146103512  32.4271381425
H  5.5817664984  15.3273479617  32.6711935536
H  15.8768595367  36.2249427125  34.0362587634
O  12.9652153785  29.5484886486  2.6014831856
H  12.8526146188  30.4201173819  3.0104495816
H  12.1869238153  29.0559197453  2.9675587665
O  4.0010866918  27.0726682475  26.3795840189
H  4.1233390783  26.1642901099  26.0625438087
H  16.4719290236  5.3929868668  23.7038236573
O  17.2839558752  2.3344321461  17.9502112916
H  17.6987695239  3.1910310638  17.7678547965
H  16.3133109811  2.4674525972  17.9034987078
O  20.2144089687  16.5714323590  16.1695219871
H  36.9110457905  16.4791101907  31.1202207246
H  20.5292126155  15.6599889689  15.9034181074
O  13.5023237469  18.8083891709  17.6322478373
H  14.3121886333  18.7357538671  17.0685069749
H  12.7916375002  18.3205613880  17.2055473542
O  5.8011699229  20.8277890861  35.7288191934
H  5.0585979956  21.3601806179  35.9506214964
H  5.9191181253  20.9043958301  34.7638547534
O  36.6606805068  24.8199883799  16.2071082264
H  37.0742572233  24.3053364690  15.4729269065
H  36.5358457215  25.7699039689  15.9478089636
H  2.0539854181  21.9262525133  35.1853694865
O  22.3503770468  23.2956998347  30.4806312714
H  22.6321574499  24.1751025781  30.2274804635
H  21.6345063908  23.4002969865  31.0993892381
O  30.2178480296  28.5631150189  2.2830182592
H  30.5279877256  27.8113331235  2.7815219759
H  29.2973908999  28.3078469234  2.0324787008
O  20.9859701872  27.2330209283  21.5113219883
H  20.6644044330  27.9759052727  22.0521315401
H  21.6870341401  27.5375471916  20.9109241583
O  27.2190189765  30.9367176360  4.9676419757
H  34.9762865589  28.7510564076  29.6037147458
H  27.6048933575  31.3582207564  4.2010938600
O  8.1172461610  13.3748879108  27.3726505712
H  7.7831169145  14.0951328362  27.9680384730
H  8.0580026963  12.6469636688  27.9692027962
O  16.3523200422  15.3981523689  22.5095302442
H  16.6725333568  15.0598006857  21.6687186441
H  17.0510432013  15.1735718649  23.1583255047
O  8.6380369547  12.2513669336  34.4793617290
H  9.4931595198  12.0548199463  33.9761618240
H  8.9086076093  12.6963982840  35.2715522666
O  3.1724424851  4.8645407006  32.2752610211
H  2.7918356903  4.8649079104  33.1962784481
H  2.3429454618  4.6784272493  31.8059729779
O  12.1429573319  21.2552375607  17.3121518939
H  11.3112343841  21.1451173892  17.7492485283
H  12.6286037997  20.4183629107  17.4307397271
O  2.4149237859  31.8209708787  8.1356873769
H  2.8432640467  31.7892244109  7.2868387803
H  2.7014047307  32.6421042978  8.5441464365
O  19.0262511719  32.1666118030  27.5189518105
H  19.3922857280  31.5490869612  26.9130783636
H  18.2063662237  32.6308756989  27.1156688016
O  15.8160612539  13.9582856667  0.8884738346
H  15.3060637080  13.8272827453  1.7338251529
H  15.6380945606  14.8656117627  0.6507085433
O  23.5050922551  29.4106751411  22.9639247767
H  23.2650215448  29.6736190673  23.9000904775
H  23.6478795257  30.2323704720  22.4651100887
O  26.0268986879  28.0422358927  36.3022779694
H  26.2384146820  27.0838744742  35.9851888236
H  26.1835133840  28.5577777349  35.4627626483
O  1.2792129102  17.4764020071  35.1937449667
H  0.4782718633  17.9752270283  35.1836764868
H  1.4011248877  17.0286360458  35.9964046808
O  15.3307530115  21.5673590456  19.3594980648
H  14.9147119921  20.6870370382  19.5103843442
H  14.9226578544  21.7863785402  18.5433397187
O  11.1624455311  13.8704843978  20.2289483861
H  11.3489705226  13.0334944446  20.6648071226
H  10.8672040700  14.5094086829  20.9758875252
O  30.9073103953  12.7021882214  35.9974143776
H  30.0922758888  12.3853256594  35.5020196280
H  31.4230830811  11.9026070479  36.0826547891
O  9.9589964737  19.1777560605  36.0807259401
H  10.6073611769  19.9376305660  36.0681977271
H  9.0511809196  19.5468429971  36.0574534812
O  21.2714677967  35.3520426599  34.4348382847
H  21.5512062591  36.1292633602  33.8556140084
H  20.4640534459  35.6263858371  34.9589728324
O  5.4707800190  18.2955595757  30.3473771562
H  5.7722860371  17.3591125537  30.3174455245
H  5.8645703576  18.7498189038  29.5427623922
O  0.1629232122  22.2093595984  4.4102552137
H  37.0984167008  22.8037556157  5.1217127684
H  1.1116339991  22.0696731665  4.5332044605
O  21.0834653361  23.0032724903  22.8636919123
H  21.3073978544  23.9165522733  23.1470699972
H  20.1914538437  22.8182421591  23.2061379536
O  3.6241346271  36.4531161168  0.6320245857
H  2.9620250423  36.0167445233  0.0114036216
H  3.0976632032  37.1577622991  1.0322462833
O  0.6256542635  16.2426044409  4.5415897009
H  37.2133472140  15.7836232704  4.0312410502
H  1.4224884641  15.7491826287  4.4197073767
O  32.7523878116  25.6186852001  36.1915543709
H  33.3880532132  26.1162369375  36.7706389008
H  32.3357960347  26.4229561607  35.8277688775
O  13.4592990987  5.5760539182  29.6901012798
H  14.3344431766  5.1141950938  29.6740590963
H  13.0449385607  5.1740040307  28.8463428302
O  26.1367106434  11.8592651427  34.4509709404
H  26.1255347435  10.9048199581  34.6856427157
H  25.9228368630  12.3937363021  35.2273832958
O  7.2797065847  33.5865654976  35.8880727860
H  7.4627092754  33.9122180264  36.8090538542
H  7.6242131346  34.3334006802  35.4087799179
O  14.7635639959  13.1395414705  31.0166355891
H  23.3072319934  10.2511749423  24.5986202240
H  33.0645292540  14.8772624122  2.7588155205
O  25.2481509169  16.0371045650  29.5277793774
H  24.5634667038  15.9599665476  28.8397079996
H  26.0824968249  15.7601393279  29.1511363187
O  13.8991435713  6.6975550701  36.6000972825
H  14.8463787448  6.8768466478  36.7239046090
H  13.8328707631  5.8718937818  37.1853790941
O  17.0054141313  31.9351198312  5.8168921820
H  34.6031279358  1.4478801764  3.1653865971
H  33.0779084450  1.8585518864  3.4969350827
O  13.0271811263  31.2817258401  17.3169916983
H  13.8861165421  31.6131536640  17.7476191022
H  2.5235159780  19.0053875883  29.5848215161
O  10.8303686815  5.5222205821  4.6353554255
H  10.7505127730  6.1839831842  3.8556409257
H  9.9902152161  5.0152206400  4.5288895488
O  12.3911505718  32.6371461187  3.2951492144
H  13.2482135543  32.7557591160  2.7728036885
H  11.8621780060  4.0440136714  33.0199458951
O  4.9455300815  28.4426557516  1.2134759093
H  4.3373310379  28.4174445990  1.9917702562
H  5.4463379705  27.5679845757  1.2806352584
O  7.1225957371  3.7057586603  0.2527383147
H  6.4111892510  3.4244176331  0.8486426350
H  7.8217448608  3.7981198425  0.9225648039
O  14.1172182786  13.4093194039  16.4225048280
H  14.8961455655  12.8950190849  16.1324395864
H  10.3633939335  34.3907012225  9.0629053962
O  9.2044046810  34.9042694919  11.8519148111
H  9.1641347127  33.9302064686  12.0130330069
H  8.2681576677  35.1759713928  11.6790997084
O  2.7444336040  2.3422532820  12.3904533908
H  2.4265161505  2.0298800217  11.4920463011
H  3.6020378716  2.8361842330  12.3190774012
O  36.2580412152  2.7527391345  3.0735058405
H  10.4777919734  27.5418007829  3.1433482809
H  36.0919421331  3.6066396988  2.6523298055
O  5.6227948524  22.9187384327  6.9367114608
H  5.6123150755  23.7766120103  6.4898969370
H  6.3891312083  22.9364588747  7.4905028360
O  3.9238352455  0.2658517383  28.9141367752
H  3.3339917895  36.7871157839  28.7228104428
H  3.4632533607  0.7305587289  29.6796208864
O  3.6016189744  27.3490879606  21.4734102639
H  3.8960953188  28.2940054841  21.4014749124
H  2.7874530294  27.3181063692  20.9836612667
O  5.8184544561  25.7374881838  1.4746892671
H  5.7802049552  25.3952848137  2.3877419801
H  6.6944105123  25.4738301553  1.1885669196
O  34.0498394967  29.0532727592  34.0609672439
H  10.1807130906  1.8001480819  0.7480980869
H  34.2565798349  30.0005026809  34.0720538440
O  8.4863842953  35.4883330737  6.8375316033
H  9.2493982457  34.9890080412  6.5352519321
H  8.6537346083  35.4250672499  7.7836601660
O  6.1661842687  28.8784782170  34.6845100639
H  6.3100776093  28.0631342382  35.2017019141
H  5.3292493833  28.6956189873  34.1155785713
O  5.1199501402  30.6120888207  6.5114321049
H  5.7588235691  29.8863686969  6.3736921917
H  5.4576110673  31.0432412078  7.3374007525
O  6.3578096425  6.3570293405  2.4268604026
H  6.2585019830  7.2886534042  2.1840612234
H  34.5892822387  20.5516269714  12.9470795526
O  2.4273434265  1.3946242246  30.8988780834
H  3.1055234305  1.8595993648  31.4791192192
H  2.1114513320  1.9660780927  30.1964545376
O  7.4739083799  11.6356202792  16.6665421380
H  7.9853794901  12.1976277339  17.2746641243
H  6.7803358584  12.3308235975  16.4258143851
O  31.5452725066  3.3202549033  19.2712632565
H  31.5664574398  4.2641728826  19.0381448081
H  30.5952277520  3.1688658704  19.0803496864
O  30.9566232238  29.5233733291  14.2520811217
H  31.0980407572  29.8779926072  15.1840298185
H  16.8230737096  32.3833697967  13.4223469258
O  4.9340092966  1.9990297928  18.7201363830
H  4.5997707689  1.4101921729  17.9636763052
H  5.3895211826  2.8202361574  18.3843883450
O  13.3466427267  17.6103449124  28.4002905952
H  13.6056761506  16.6813931409  28.5779794959
H  8.1480726880  31.5805088888  2.6926269235
O  10.2300161694  35.8591922930  0.0910944084
H  9.4675905087  35.3098948902  0.4498549914
H  9.8584253876  36.7760789235  0.0724085403
O  2.0021022151  36.7805978460  7.3662477999
H  35.7665295088  31.8448080590  34.1473352894
H  2.0419765469  0.2750379511  8.0274840502
O  13.0362650237  31.0012257703  37.1672444511
H  13.1804337839  30.4265625689  0.6367941744
H  12.5586922839  31.7666790733  0.2580073463
O  35.2674691714  1.2009607769  13.6217397600
H  35.1438482808  1.1758297703  12.6784385419
H  34.5813777955  1.6901300829  14.1822056106
O  17.6564767967  26.6459934647  35.9830002710
H  17.5455023330  27.1351070468  36.8444288837
H  18.3630342861  26.0119153084  36.1060484414
O  21.7436686147  25.4585039150  23.3690812101
H  21.4784506113  26.1289720810  22.6297471057
O  4.1071353318  31.3135851767  29.8675906900
H  3.7790729437  32.1885380453  30.1670345258
H  5.0506033588  31.3765214538  29.6501820417
O  26.9599160866  20.1908744529  23.4841674070
H  26.4052884484  20.9034438063  23.0666531607
H  26.7511320256  19.3947137890  22.9981773165
O  9.3394604423  30.0058193943  5.5722306325
H  9.9451200597  29.5520805282  4.9655263457
H  9.7596125029  29.7608882350  6.4120264816
O  28.6608431966  18.2922117189  32.5189348978
H  4.4714802013  31.1638109044  10.3970573062
H  29.5950526662  18.3721102751  32.2403192117
O  10.0144817392  4.5621094990  29.0086879124
H  10.1734362605  3.5983730790  29.0288406803
H  10.6783511632  4.8438869391  28.4195262171
O  22.7359336332  26.8319288858  3.0614939945
H  23.2470661520  27.5273703364  3.4721120319
H  22.0483363628  26.5497007796  3.7023087947
O  3.7976013919  23.6526076495  32.2248916854
H  3.1815398162  23.8659644891  31.5377126798
H  3.4323359200  22.8289319044  32.5818352124
O  9.2480627597  23.0064718953  34.7700728711
H  8.8487044821  22.7919100118  35.6281847083
H  9.1975710224  22.2243244606  34.1586833386
O  24.5075326601  18.4299939697  1.7387666594
H  24.4512891609  18.5003435303  0.7564753634
H  23.5432939948  18.5632940241  1.9580734542
O  12.8219649729  1.0895818038  36.0273797709
H  12.1964761629  0.5822942346  35.4794442739
H  13.3497517135  1.6256961954  35.4700659079
O  2.0446017832  1.6878326685  9.0436944060
H  1.4860610210  2.3122798162  8.5173408056
H  2.9375096988  1.8410878256  8.6753229963
O  20.0581178857  23.0576919900  14.5606583170
H  19.5063066748  22.7768283861  15.3073027731
H  19.8771685853  22.3839970662  13.8896888719
O  9.2371694037  9.2837921478  31.8385914529
H  8.9070264065  8.5735374542  32.3912403924
H  8.5077870246  9.8045564083  31.5362400905
O  13.5472167112  33.1940574278  10.4592897804
H  13.9858054083  33.9383214392  10.8874655313
H  13.6190143799  33.5224000957  9.4952884698
O  4.0029270601  22.0448397572  2.9209093768
H  3.3771653217  22.7729772312  2.8382367835
H  3.7691322353  21.3261062309  2.3369051088
O  22.9745651287  34.0315684860  5.8748523364
H  23.2476544592  34.8807396410  5.4718807170
H  23.6540202486  33.8284889810  6.5001739467
O  1.7611633808  28.1060879724  11.1797669718
H  1.4085440386  27.3411125113  10.7077573624
H  1.0165907918  28.3267033482  11.8212706210
O  30.5532539585  24.2645706809  14.8799797597
H  30.2839132325  24.1778414951  15.8303522434
H  30.9378575699  23.3731258148  14.6631109436
O  18.3654288649  25.9702596242  4.8631550892
H  17.8714911320  25.1525799306  5.1064564060
H  18.1367313334  25.9766833014  3.9220327124
O  4.1062288195  34.2281987075  8.0608636734
H  4.6951468039  34.0428714684  7.2392158512
H  4.2877956702  35.1385405424  8.2553192084
O  15.0435885608  33.7603967525  36.8612765834
H  14.6619289630  32.9567624039  37.2323196351
H  14.6302014443  33.7650484053  35.9765212398
O  6.1846455996  33.0467765392  32.6705640168
H  6.4712241122  32.0969270030  32.4660293025
H  5.7404792724  33.4333129180  31.8719929965
O  5.4842369069  13.0156167513  9.3990973837
H  6.3326879957  13.4333784035  9.3891591841
H  5.5214799907  12.3023328154  10.0327371801
O  36.6411523360  4.7874706126  17.5238229119
H  37.2234824082  5.1949450411  18.1888267327
H  37.2111256885  3.9738682887  17.3980611899
O  33.4819392815  27.7406562585  31.6951312064
H  32.5874950895  27.2815201931  31.8406364007
H  33.7500926084  28.1634335602  32.5443839350
O  14.7645617711  3.0205542646  14.7404601834
H  14.8574600168  2.1020295497  14.3228689599
H  14.8332681854  2.9431487625  15.7234826125
O  3.7476427846  28.9381807613  14.6372475559
H  4.6930864383  29.0845853602  14.3789166520
H  3.6490896611  29.0853591788  15.6155187291
O  12.1770042564  26.4494369034  5.5532749600
H  12.4219952406  26.3954062887  6.5171557564
H  11.6089073697  25.7136891598  5.4383957746
O  3.8652065254  27.0315488987  12.4118543729
H  4.0174071481  27.6008202207  13.1404060340
H  3.0289046265  27.1984930619  11.9661586463
H  25.8697369589  29.1624295577  27.2968907227
H  35.5047652575  26.6553949172  13.7979310575
O  16.6477595820  29.2210510425  13.8823577405
H  16.5904076142  30.1972621691  13.8543793095
H  16.0509236046  28.8973881955  13.2021045800
O  2.5359623784  24.5973971443  30.0510536699
H  2.9670286110  25.4385899724  29.6898522858
H  1.5938908455  24.4776871149  29.8012671274
O  14.5136657523  10.3757249081  22.5932593395
H  4.5285611261  19.1350049976  15.8432165316
H  4.7105455327  17.6453973014  16.3482936359
O  2.0885436457  7.7019042982  24.7379968597
H  2.2466104207  8.2666899850  25.5175388873
H  13.2440092745  30.4587208247  16.8576424796
O  36.6155225193  31.6931671808  36.8215941858
H  0.0478856265  32.3985181222  36.9122820827
H  36.0269114599  31.8021094209  36.0153476928
O  6.2548196184  34.1422169381  21.5548838393
H  6.6951218511  33.6763739465  20.8288936296
H  5.4050166687  11.9686216508  7.8034872413
O  9.5571094551  22.2177498755  20.1906091559
H  9.2858716601  23.1580834161  19.9934144259
H  10.3625287729  22.4472100350  20.6931603214
O  25.1510522841  19.6181108362  29.6438508360
H  24.8420379150  18.8972926872  30.1984107186
H  25.0474033720  20.4704934143  30.0572469766
O  9.6039313914  1.4765399546  16.1139028712
H  9.4146971371  1.9739979384  15.2453442995
H  7.7761104916  33.6786503444  1.6030073954
O  7.3124982124  24.9895933199  28.3136555014
H  7.1100539917  24.8082124314  27.3690326780
H  6.5417764952  24.8515565459  28.8857057734
O  19.2389759496  28.9005821132  12.7306142118
H  19.6309459161  29.7402441115  12.8041870018
H  18.3773602666  28.9027302110  13.1640376260
O  30.6090534489  27.3560829368  28.1672790925
H  31.0202452843  28.0366348180  28.7762999921
H  30.1187483624  26.7756759563  28.7090021625
O  9.7697616036  33.8831381516  22.1757256682
H  12.0045563199  16.9758449514  12.1944900945
H  9.2123603940  33.1673342459  22.4983815275
O  1.2304416946  28.3843760222  17.8720517386
H  2.1290749841  28.6338856855  17.6263507809
H  0.8459159411  27.7755830813  17.2171315611
O  10.5720797228  11.9938520268  3.9444429903
H  10.7350201307  11.3532826076  4.6378734155
H  9.5643205151  12.0913653637  3.8321523616
O  35.7285068230  37.2211157506  22.8686725123
H  35.1194183952  0.2878174606  22.1548387807
H  36.4082727977  36.7330419961  22.3488846997
O  35.1122334386  27.9630526819  21.8012056563
H  34.3792290175  28.0275788232  22.5157919449
H  35.8649038832  28.4881419258  22.1958370860
O  14.8078466411  28.9448018307  27.6612957012
H  34.3955286888  6.6501081946  28.1933929838
H  14.0655660796  28.3950278934  27.3599875059
O  5.0039587165  2.3334698762  14.8941813184
H  4.9708688213  1.8174364910  14.1331627241
H  5.9745335356  2.5770338664  14.9641848048
O  27.2626153805  13.5544378653  24.9352493351
H  26.6857662097  13.3194824612  25.6964289073
H  28.1366862891  13.0740731561  25.0266155098
O  4.9657366539  22.5451080624  18.8971312207
H  5.4077848582  22.1726192719  19.6699798755
H  5.2087298952  23.4846629778  18.8055265739
O  35.3600197136  21.1655320432  13.1369577501
H  35.3946409080  21.1741203672  14.1255575632
H  34.9847016963  19.5974895902  32.0745089646
O  10.7381694373  24.9787300167  16.1953544252
H  11.0940773908  25.2453512426  15.3797518060
H  9.9732804844  24.4129552111  15.9667084649
O  33.8131625424  5.0613754386  30.3714793973
H  33.8021459233  4.3143693671  30.8981705546
H  34.6175694295  4.9303153029  29.8299455460
O  12.6009041626  33.6976640277  29.0510626680
H  13.1584539209  34.4443955713  28.9377274457
H  11.9264574189  33.9211158211  28.3877108998
O  14.6596057574  25.3943325663  26.3404585881
H  15.0316434682  25.7335695903  27.1459890278
H  23.7660679382  5.1218145294  19.2713719141
O  30.5171727279  17.8714779317  35.7871601916
H  31.3059780566  17.6876095208  35.1935497004
H  30.5081296950  17.0041287749  36.3256029351
O  36.4515886342  3.4694645910  28.3577835869
H  35.9563214880  3.5727881496  27.5361939157
H  12.8249308964  17.6768934468  27.5584503426
O  2.0499430415  9.9275471522  34.6738012426
H  1.8417412731  9.6272403653  33.7595594748
H  1.4303485612  9.5187397381  35.2751223769
O  34.8421489242  31.5219877645  34.4043322556
H  34.8160159971  22.0393055952  31.6164870221
H  34.1915169051  32.2722860712  34.2122772577
O  1.9611345712  21.7838822129  22.8697426515
H  2.9032366432  21.4956726589  22.8963586864
H  1.8440441459  22.7480882778  23.0256592623
O  3.6705049019  24.4748280444  25.4346243824
H  4.4305659754  24.0454739968  25.0723590129
H  2.9246793080  24.4525488586  24.7977433116
O  15.9346349595  18.9421975299  29.1847897200
H  15.5411293170  19.7513792185  29.5556136772
H  15.0773840363  18.5271352770  28.8838792369
O  25.0351084095  34.5334217515  34.5987213022
H  24.9720277507  35.4824642441  34.5141053891
H  10.3869807932  16.5056071766  27.3063617891
O  11.8210427324  9.7753528031  25.7230242804
H  12.3757834689  9.3050677434  25.0713202214
H  11.4802124510  10.4935404190  25.1551469946
O  23.1530035631  2.7710169805  3.0115599269
H  22.3481146748  2.5468650112  3.4402171000
H  23.8051777624  2.8932601713  3.7368717710
O  34.9211223401  9.6362441376  14.4551751419
H  28.9511364589  15.7671574637  29.8567670772
H  34.0042553793  9.6654741962  14.1625712515
O  21.2150894049  24.3021364303  17.1226983010
H  20.9029358922  23.8974113267  17.9579920351
H  20.6973538554  25.1150966355  17.1234189961
O  5.4927934620  27.9841534679  10.4051786542
H  5.2814530955  27.5213820225  9.6276176536
H  4.9928572374  27.5472846472  11.0742782766
O  7.3803801079  4.9837278643  30.0147440011
H  8.1994404209  4.8226732149  29.4634672759
H  7.0013654715  4.1208187563  30.2429800455
O  8.0767312631  30.6260841106  33.4059351855
H  8.4799812990  30.7495167147  34.2836077291
H  7.2933781740  30.1520250328  33.6617301287
O  20.1815379047  3.5031322194  14.0011259523
H  19.3402972059  3.1195577476  13.6926517347
H  20.1432778738  3.9348708731  14.8570084485
O  12.2022833657  30.0317779528  30.4372950658
H  12.9724955835  29.4767365126  30.5492173884
H  12.0719229113  30.2010331081  29.4808867009
O  17.9159354207  14.0008885852  5.9697588498
H  17.3529482253  13.5721633424  6.5785747142
H  17.6809465539  13.7028752952  5.0942558801
O  3.1093692855  36.3452081890  33.1947230605
H  3.4239564372  37.2047417103  33.5773903866
H  2.6627664720  36.5159565864  32.3433203078
O  32.3799541042  9.5958592407  17.9517841811
H  32.1032365142  8.9844900747  17.2348318725
H  32.2647433100  10.4759252844  17.4590058212
O  36.2719978708  19.7375438277  35.2849643229
H  35.6587163450  19.8832137837  34.5194678190
H  37.0023522899  20.3439496689  35.1005654199
O  28.4134724178  16.0121224373  1.6312837408
H  28.7449975053  16.0318369067  2.5776870861
H  27.8074504196  15.2854788405  1.5308220698
O  17.3193028765  24.5381199447  9.6150712022
H  16.6964790650  23.7587824516  9.7877260526
H  16.8834936886  25.2086948347  9.0367043723
O  5.0237478033  33.4312378248  12.6669582752
H  5.5775611295  32.8595326936  13.2598287356
H  5.1973610020  34.3740171717  12.8528152237
O  32.2769301369  35.7605525552  21.5286632615
H  32.9147073839  35.4034200119  22.1748531730
H  31.5029624103  35.2313773723  21.5573754389
O  0.1643893842  20.6014939881  31.4712924629
H  36.9946978494  21.2283673908  32.0323726142
H  0.8197364363  21.1858560524  31.0678252559
O  9.8634233712  35.6951074778  31.9393422748
H  9.7465144799  36.1313400992  31.0984403484
H  10.5916289906  36.0992833494  32.4342679178
O  6.6951127449  31.7907268680  29.0973910190
H  6.4810236818  32.6575366181  28.6985804088
H  6.6375653848  31.1317162140  28.3148368610
O  7.6668763218  5.0147620664  19.7574779746
H  7.9690039803  5.6301567595  19.0397948846
H  7.6305338193  4.0957950507  19.4323564838
O  34.7812191232  25.6454088919  29.7102102831
H  34.0129185514  25.3238020042  29.1981717209
H  34.9147138722  26.5353623253  29.4127234021
O  26.8742999279  22.0967020286  19.8118233101
H  27.7388745331  22.5600981506  19.7120687805
H  27.1501520914  21.1979507260  19.9904994202
O  29.4162143066  16.4654410122  24.7713991365
H  28.9759835758  16.0474302395  23.9643806615
H  30.0850768671  16.9861996648  24.3398874206
O  30.7781055317  29.6528729233  24.2239032649
H  30.1761720619  29.6682565206  23.4370452388
H  30.1434245470  29.0010962541  24.6868138780
O  30.6571532275  14.7680936614  26.9760976104
H  30.4600511846  15.2654007198  27.8146500366
H  30.2218241247  15.3103057692  26.2867893460
O  22.3474038398  28.3647434695  31.5497770966
H  33.9787836904  26.2134495609  13.9882935473
H  24.6589552442  25.6384867629  31.9418281079
O  11.6339424827  30.3748668752  27.3637230162
H  11.9724349495  31.1228550471  26.8290157669
H  10.8696533455  30.8177691162  27.7636925493
O  14.5301346368  25.9182872494  4.0680163582
H  14.5365827314  26.1280056508  3.1206724054
H  13.5981414804  25.9039025107  4.3026363913
O  17.2614585369  19.5418659996  6.1098897298
H  3.4601055429  27.6881914699  29.4995236327
H  4.8126464835  26.9884303956  29.3230440857
O  2.7788475440  18.3992726085  30.3005500600
H  3.7107167973  18.3854208242  30.3090964676
H  2.2955177777  8.2100903025  23.9268924332
O  0.9908173420  32.7874549304  28.5272155615
H  0.8780846909  32.3198459423  29.3897868806
H  1.3498805380  32.0047496364  28.0069454207
O  17.7709596339  21.5379850389  20.6200212158
H  16.8925830767  21.4624399334  20.1247302212
H  17.6004235136  33.2723566304  7.0361926710
O  19.6383731447  25.3772070074  29.9830053001
H  19.4411396928  24.5488298008  29.5426462387
H  19.2594963676  25.1668262253  30.8605250400
O  7.8355606016  35.4503664057  33.7588343415
H  7.3299992436  34.7448987241  33.3230631439
H  8.5494523420  35.5990883304  33.0798208944
O  15.1039256400  35.0876400194  11.8133744386
H  14.9435128409  35.8594955647  11.2648844554
H  7.2880513860  22.1086827098  0.8893486753
O  5.2930812627  35.3920333860  31.5368123017
H  5.5761439425  36.1240393054  30.8998540726
H  4.7186396685  35.7733015764  32.2497791461
O  8.1623551285  35.3322571549  24.3364469863
H  8.6092863183  36.0741335601  24.8136507051
H  8.8143145987  35.0037770908  23.7274704916
O  32.6811669472  33.0177977463  33.7892955680
H  32.5597399449  32.3890324887  33.0748342423
H  31.9951659742  32.7768298090  34.5098219340
O  15.3552232449  36.5814814994  31.0865850097
H  8.0562809379  20.1293556532  22.7067105136
H  14.7168486018  36.4022315822  30.3550420523
O  10.7096728145  24.9050609406  11.2754911456
H  10.9398353680  24.8835535685  12.2323716366
H  11.5315705790  24.8279583873  10.7880442028
O  0.1003223492  0.3555085197  34.9905526378
H  36.4126778539  0.2836777408  35.2441357497
H  0.5523179896  1.0372829786  35.5557549848
O  13.7954484753  8.2685329602  28.7583147224
H  13.6657277826  7.2571912396  28.9548194378
H  12.8731662202  8.5804033448  28.7878076096
O  22.5581460664  31.8480545831  4.4325518371
H  22.3316636139  32.1228857699  3.5184035826
H  22.9841289877  32.6503144146  4.8116539080
O  34.2373346877  26.7285965121  3.4101153055
H  13.5301516721  1.8143259506  25.0169608742
H  33.3030114104  26.6435931374  3.6018288750
O  35.4490739059  5.8292008095  12.7645891238
H  36.2648222101  5.8899320010  13.4432679137
H  35.6368742922  4.8539877613  12.4957500736
O  18.9583163676  36.7584290341  26.2788045469
H  19.1098839958  0.4606291826  26.2735256388
H  19.4055699280  36.5028553006  27.1029511131
O  12.8765369048  31.7994550837  25.2279250399
H  13.8347691956  31.8393124058  24.8777216576
H  12.5077742109  32.6795707183  24.8970521412
O  34.7063305217  19.7655640474  32.9802059864
H  33.7959192600  20.1320227373  32.8791473712
H  5.4879590992  5.8970379258  2.0622389635
O  32.2801108771  33.1140938115  26.8046997480
H  32.5320256145  33.9215647861  27.1924931117
H  31.7989897955  32.6129641949  27.4811219787
O  7.9145592168  2.2494956944  28.0527204966
H  7.0479973371  2.6825247559  28.0433697869
H  8.1250927807  1.9710534404  27.0957363723
O  18.0623070496  15.2556460701  24.5683715676
H  17.6259645958  15.6085484887  25.3404818673
H  18.9277353874  15.7165540337  24.5299201491
O  14.5383314676  25.9735307670  35.5974623203
H  14.8969509788  25.8896241681  34.6548229426
H  18.0531644782  20.0677770762  21.4416907902
O  0.4522600553  6.2272294252  29.0641916115
H  0.4335887150  6.3183228829  30.0134470837
H  36.8611295134  6.6610962825  28.7385233641
O  7.4550059411  32.0945426779  2.3709921914
H  7.0290330068  31.4739025404  1.7762656613
H  36.9165813143  4.3420985725  28.5254873629
O  15.5235378497  27.6039667812  11.9076621685
H  14.9357804167  27.6390111135  11.1356637314
H  16.4056988518  27.3437833053  11.5850585563
O  34.4861837721  21.9936486697  30.7020228242
H  1.0927289227  37.0857973216  6.9775882622
H  34.8283378677  21.0780385029  30.5039083010
O  6.1330595512  24.1483090842  33.8700553793
H  5.4859563485  23.9751565994  33.1942243388
H  6.8775643113  23.5757727168  33.6414351601
O  0.8813255401  12.3575497253  28.9996812768
H  1.6269501095  12.0234863399  29.5367283973
H  1.2487773125  12.9560544536  28.3368848977
O  17.8683390436  13.4012155699  27.9230724992
H  18.4232656317  12.6482533848  27.7444045219
H  16.9806074419  13.2110902617  27.4994408731
O  21.3481999153  21.2376364029  28.8429964645
H  22.1449288200  21.6972683826  29.2353478908
H  28.4760975724  4.8519054140  27.7286247552
O  17.5955554067  35.0477120554  32.1902577875
H  17.7261122396  35.6092318927  33.0011581086
H  17.2669251391  34.1719010892  32.4713286389
O  1.4466892880  4.0507038743  4.3873860747
H  2.1839598925  3.4454656046  4.1038056324
H  1.2991357285  3.6038117406  5.2576430346
O  20.6028449497  29.4159734950  23.0516214838
H  20.3326390013  29.5599345234  23.9781343950
H  21.5876899473  29.4175600733  23.1240383529
O  9.3971963035  0.6892255268  11.5339996565
H  26.6564396791  30.2130672419  4.6766973694
H  10.1327676701  0.1567229738  11.9241218415
O  33.3317891903  0.8084950565  0.5045015083
H  33.4365856570  1.7073902213  0.1637566091
H  33.4021020806  0.9792339679  1.4898836970
O  6.5207458275  29.4483858071  14.0674033242
H  6.9185305735  29.3186695145  13.2611057021
H  7.0609904522  28.8294127253  14.6372353739
O  15.8931394447  36.1018284711  23.8908782034
H  16.4185290671  35.3679434610  23.5274349229
H  16.1861587449  36.2380108629  24.8137365057
O  22.2492575337  23.2372578103  34.7341942915
H  21.9162367781  23.7717724228  35.4342385865
H  22.2708914115  22.2853245061  34.9900947553
O  19.5478856760  34.4305664397  30.3397487373
H  19.3314150523  33.6039874990  29.9304602044
H  18.8298673422  34.5928212728  31.0434713282
O  13.4915106729  22.4721199524  27.0479036200
H  13.7872248791  23.3596438028  26.7156780595
H  14.2588530641  21.9202776503  26.7960503419
O  7.3002567667  24.7084441595  25.5564577776
H  7.2947462015  25.5359088031  25.0389459973
H  8.1761709217  24.2751567243  25.5496390761
O  14.8539852311  29.6413133193  20.8421593285
H  14.9497885693  28.7115082442  21.2540587403
H  13.9146356474  29.9656033656  20.9635658175
O  8.9713842380  4.3080280687  21.9755663992
H  8.4920054369  4.7362629521  21.2367339542
H  9.1247659980  4.9749181046  22.7132168375
O  8.1048983507  2.4165051949  18.6476163899
H  8.9183739523  2.0114622340  18.9918750141
H  8.2061753646  2.0907492929  17.7640921092
O  1.2992464260  1.5719171757  28.2588327925
H  0.6761083424  2.3137408756  28.1229461479
H  1.6569716952  1.2708299925  27.3761841799
O  16.0167073296  24.3433305362  30.5405265000
H  16.1548495624  24.7451432100  31.4196466757
H  15.1148959449  23.9086823012  30.4539020668
O  26.7084965802  31.7108402803  31.5126618677
H  27.4488449854  31.9832081326  32.1184702700
H  25.9118359067  32.1291168933  31.8716982693
O  16.4943413016  30.6886103588  3.1282497802
H  17.0719621849  31.1651025171  3.7164959884
H  17.1418982256  30.2087457610  2.5956678094
O  3.7400174043  22.1987286779  8.9807259794
H  3.6478914786  23.1343170605  9.1910547948
H  4.2882372720  22.2286649607  8.1941080690
O  29.3955803772  36.2648204717  33.3207447268
H  30.1282225004  36.6340861773  32.7757195824
H  28.5698423724  36.6407639008  32.9960713707
O  6.7820334060  0.3610625056  35.2800703813
H  7.0927059114  36.8073342642  34.8418677368
H  6.6180912905  37.2563451452  36.1790546151
O  22.1717701605  19.6487957829  19.7739146134
H  22.4529545943  20.3525637107  20.4315258144
H  22.0840987957  18.8418925707  20.2877540209
O  14.4679302632  37.2495466818  4.8202258978
H  14.7834948038  0.5978482951  4.1042982888
H  13.5080645362  0.0516059466  4.7270295068
O  2.1679248102  2.2916057230  35.9206407731
H  2.8456207547  1.9403619488  35.3395295986
H  1.9827197624  3.1568136072  35.4240868390
O  11.1577306876  25.1942311114  23.1738749707
H  10.8903917480  25.7164876220  22.3975170841
H  11.9095187504  25.7122327283  23.6077749663
O  17.3033696180  27.9695510499  23.2626863619
H  17.0955003171  28.4048890203  24.1336512679
H  16.3766147442  27.8204888491  22.9648938264
O  36.8293820999  35.3016190014  1.1867165404
H  36.2830562484  35.5346359009  0.3928917819
H  0.2537468319  34.6188741034  0.9708131986
O  19.9355667913  25.1470540012  8.4245000977
H  25.6005226266  26.5963176108  31.1079985322
H  25.7271047048  30.7589019765  27.4356092160
O  11.6618062195  37.0677997417  33.5375182144
H  11.8902669213  0.5219826640  32.9626950402
H  12.4806267426  36.6231831719  33.7322842753
O  21.6997254379  13.8614728446  25.6387585102
H  21.3325504959  13.1602931417  26.1366730023
H  22.5211090662  14.1587286457  26.0135450624
O  18.0355270724  5.9025142253  9.0079760960
O  19.9757788142  32.5537204912  22.9805232334
H  20.4393558732  32.4893138089  23.8286302210
H  21.6122636331  13.2379704280  0.1589942626
O  10.2453807822  6.1374520915  0.1659899844
H  10.7186424483  5.3252849629  37.1069346176
H  9.3561080700  6.1284334178  36.9813333308
O  15.5238703694  10.0263501942  11.7248673723
H  15.0602087556  10.6755349871  11.1357695914
H  29.2218606195  19.3412066647  9.5155162356
O  16.8154709681  0.3021020465  36.8428613710
H  16.1615524474  0.2006610529  0.2896758931
H  16.7997500207  1.2799312066  36.7228283383
O  23.4583667602  21.0425954365  13.9823541832
H  22.8283062445  20.3569799507  14.1998514953
H  24.1109758681  20.8310379194  14.6473662521
O  29.0800681300  12.6826947551  18.3584798412
H  28.4960986168  13.0879840285  19.0878639672
H  23.1727364553  2.4168571882  14.6785988479
O  29.5087694234  31.3699466755  8.4480664871
H  29.0836658759  32.2750165596  8.4988576123
H  30.3939250202  31.4856047621  8.0756456154
O  18.3103452109  14.5667571588  36.1297633423
H  19.0937948528  14.4400187337  35.4922624177
H  17.6833225079  13.9138716917  35.7547921848
O  37.1013585436  29.4009737070  3.2431479404
H  36.9280987698  29.1915513106  2.2702616007
H  0.1061881129  30.3666122200  3.3062518239
O  11.3338551602  20.6351669468  10.1645299210
H  35.8969620527  31.9068316909  21.7028374174
H  11.4429260420  21.0413478986  9.2295615132
O  0.1163266975  28.4533068458  27.2649405719
H  1.0379652435  28.7998836098  27.4734446251
H  36.8715577758  29.0618445242  26.6972353009
O  21.7926598959  1.9040113017  18.2297349368
H  22.0468539749  2.6353541996  17.6250015107
H  21.2177764155  2.3953590923  18.8836870277
O  0.6703106269  10.5238307873  9.5215124891
H  0.0629183125  10.4415304528  10.2615516070
H  0.9950141825  11.4227263256  9.4471254921
O  36.2418902835  35.5374753259  12.6018307404
H  35.5394708053  35.2891417889  12.0157902081
H  36.6144701516  34.6669915211  12.8445711590
O  6.5045184987  5.2841170101  5.2614400669
H  6.3053481358  5.7285704371  4.4256963310
O  28.9711348489  24.6460640438  17.5858386626
H  28.0583877759  24.9114814223  17.3434259721
H  29.5370307364  25.4670365117  17.7588389103
O  25.2645368703  5.8972459452  8.0718698566
H  25.9225543091  5.9276767056  7.4156440966
H  24.5707492082  6.6730710469  8.1071903663
O  10.3278458072  33.2726487993  6.4209403970
H  11.2828834815  33.2078531654  6.3791705934
H  9.9976478190  32.4102486795  6.2448897211
O  7.7657522597  5.7861054393  36.0042984907
H  6.9154442908  6.0138505576  35.5595805056
H  4.6346048850  5.4355081285  21.6210058616
O  23.0315153048  3.7689297009  16.2015913369
H  23.7475248825  4.3922290827  16.4306716679
H  22.2830005407  4.4080452386  16.3055772845
O  32.5680492081  12.0739128123  7.4736603599
H  32.0614250428  12.1169807980  6.6356730407
H  32.4338067336  12.9943980884  7.7866993692
O  21.6712603308  1.3095697143  7.9232739227
H  21.9049001619  0.4624746702  8.3652290417
H  21.9254524623  1.8108003798  8.7076744040
O  17.5879526082  16.5224476650  3.6545371846
H  18.4562276587  16.1819575560  3.8132959553
H  29.9727992046  21.3033409694  14.6595938387
O  12.3165494278  9.4100710129  12.2002266873
H  12.7668165688  10.2481479063  12.4882593910
H  13.0715821371  8.8776540748  11.8122783000
O  28.1272585970  34.1793225551  10.1026404422
H  28.7508206204  34.2201278687  10.8258264963
H  13.9840396508  1.9125946856  31.9977287868
O  34.4527133779  23.1687773870  22.8151675297
H  35.0592225642  22.5253321737  22.4001673194
H  34.8891326829  24.0035692647  22.6481460609
O  11.3858995173  33.2983458154  36.2411556818
H  17.9950449994  16.4107771004  10.2356048242
H  12.0963869341  33.3521277179  35.5626745898
O  7.3642641723  11.0041991540  30.7216525572
H  6.5596309123  10.9408127643  31.3618482743
H  7.8833653926  11.7597797351  31.0467630989
O  12.9504929060  4.6882469693  8.1607862384
H  13.9713194369  4.5207837274  8.2291846568
H  12.6399847555  4.0674704684  7.5403990016
O  18.6796732841  25.3216168854  14.2120766064
H  19.2423044985  24.5361021192  14.1878667962
H  18.2982332288  25.5251144449  13.3459717501
O  16.9353525802  26.9426808422  18.8228564626
H  16.2069074820  27.0644649196  19.4653935958
H  23.5340329191  36.5416669833  9.0946580675
O  13.2116118182  11.1660398258  30.6989815406
H  13.8395432287  11.9322650859  30.7427071670
H  12.4403140932  11.6375041314  30.9930811894
O  9.6018524792  13.2892328794  36.7937262466
H  10.1447604906  12.5118719233  37.1750324259
H  10.1852974614  14.0852522777  36.7208194047
O  3.9819881302  13.4724579674  2.8106970894
H  4.7496943692  13.7025971949  2.1483114285
H  3.1590167659  13.4619499205  2.2608082467
O  27.6575568343  1.0112160549  4.1334066392
H  24.7749983941  5.1813905255  13.6920764642
H  27.0368985281  0.3347188521  3.7650424241
O  23.3491306549  29.9855505877  25.6903715429
H  24.3101953042  29.9840498611  26.0532811348
H  22.8732150505  29.2718337311  26.2001925522
O  18.5757190898  32.8429535695  2.4675344303
H  18.1215615218  32.9858391365  1.6286807358
H  19.4572282474  32.6846640834  2.0735972251
O  2.4198780191  6.4671225337  3.8619659387
H  2.0023865480  5.6490506374  4.1598986547
H  3.0678636374  6.6824548667  4.5472816951
O  8.5001585552  6.8830302573  17.8139031611
H  7.9938688147  7.6962367421  17.5212295946
H  9.1627517176  6.8195185470  17.0742140996
O  32.5548736057  22.6673321339  8.0542011155
H  31.8483670253  22.0339638084  7.6649597693
H  32.8705243107  23.1505452839  7.3386054365
O  5.1000131678  24.5538206721  9.8875071159
H  5.8957065154  24.8031877405  10.3880485586
H  4.8691083710  25.3283929993  9.3367427385
O  22.9316395337  29.9292104355  1.6754796651
H  23.6254544957  30.2055678367  1.0121957741
H  23.5200213935  29.7714501355  2.4502343240
O  31.3973780496  18.2051637668  16.9184614516
H  30.5339832063  17.7936211890  16.7727247702
H  31.7952663224  18.5011744903  16.0325822231
O  22.1529451578  34.3657724304  0.3064648649
H  21.7488593440  34.7464304092  36.8012941540
H  23.1125634390  34.4895906625  0.0926505005
O  22.9476776854  10.1898246480  6.4252268653
H  23.0705784627  9.9402408885  7.3609637993
H  22.7335828965  9.4164669514  5.9154816999
O  26.7148485146  14.8948127212  6.2276412598
H  26.9939409107  15.7391384286  5.8269633793
H  26.3096259329  14.4313977307  5.4916203926
O  30.5857477892  4.6763442350  22.0907765084
H  29.8223368032  4.3632791282  22.6408455739
H  30.2458679612  5.4660571573  21.6265253673
O  20.5462295942  2.7338606933  36.4322263437
H  19.9189741815  2.5622206170  35.6763809771
H  20.6665532344  3.7341010004  36.4299271493
O  15.2011292475  34.3902593932  4.4042007096
H  14.5990861004  33.9639088838  5.0258360896
H  15.0406409422  35.3777323576  4.3997995260
O  6.8220674932  5.9278666374  9.2281775568
H  6.9591087367  4.9965518543  8.9911453280
H  7.1325169842  6.4341824959  8.4257665292
O  17.1505097364  3.0687400839  12.5880434337
H  17.2763003463  4.0246987044  12.5196774536
H  16.6120620337  2.8320581765  13.3160034820
O  15.4489581045  1.0093569997  7.0778076384
H  14.6185821006  1.4394106444  7.4524527798
H  15.0779692628  0.6177581868  6.2869123040
O  25.2669993177  6.5621882281  11.3315246293
H  25.3002030686  6.6102534448  12.3351768036
H  24.3263314092  6.6420516961  11.2029961719
O  5.3514377315  20.6094004258  15.2888613267
H  5.8137022630  20.5144981393  14.4908770020
H  6.0166044785  20.7555260442  16.0214646834
O  36.9128536936  6.3851410566  34.5030043776
H  36.1454417766  6.8623341732  34.8567267289
H  36.9804476040  6.7168916190  33.5521776421
O  17.6751920062  16.9198380508  0.6553053133
H  17.5943172482  16.6877541468  1.6117176540
H  17.7320545560  16.1683018184  0.0232369297
O  8.4411465462  16.8653491457  24.8745093000
H  8.3001945711  16.2089255366  24.1647356448
H  8.9905135537  16.3452159096  25.4502612774
O  23.0528774225  29.3852364066  5.8922325366
H  23.0835811820  30.1626062908  5.3533945326
H  23.7685947278  28.8957067217  5.5097681241
O  15.6678579322  4.7021448539  8.3043610273
H  16.4401805402  4.3536832945  7.8802493710
H  15.8394435238  5.6084238270  8.4738798179
O  35.7026384421  10.4559366427  7.9937082589
H  21.3336698709  33.6014861813  6.7219859732
O  21.9234962225  23.3265409922  11.0015137191
H  21.9460341165  22.9099245817  10.1618133303
H  21.3263579532  22.8198965261  11.5840519439
O  29.7235167259  36.5599490486  19.1953975665
H  29.0701321517  36.5171383303  18.4770434596
H  30.2022390810  35.6486543990  19.3457691124
O  7.1294054398  36.5774669202  11.4930316421
H  21.3937196904  32.8038587860  0.8370677383
H  21.4012923315  31.1889250755  1.0007807609
O  15.1612618145  5.7647532795  17.8556471870
H  14.4927273145  6.4047703228  17.6105502098
H  20.2031211646  31.7499061603  22.4715586200
O  18.1660617956  35.7195768665  15.3071796450
H  17.5544172645  35.0831952307  15.6655832443
H  19.0384750435  35.4262656031  15.7698716230
O  23.3626570506  33.5532667311  23.1867986050
H  24.2753623773  33.6390810389  23.4358192717
H  15.7245049638  10.5408788805  0.5684296624
O  5.9666728749  7.7847908951  23.1169553993
H  5.7786861743  7.0778369317  22.4704936306
H  6.1805141645  7.2533629364  23.8679292359
O  29.2902327025  15.6089367289  9.6145292800
H  30.0480781118  15.2403433060  9.1971432461
H  29.0014231244  16.3125341229  9.0123347556
O  3.9730922127  31.2549555925  24.7825057681
H  4.5927922432  31.9864909850  24.7160963424
H  12.5508831405  14.0927631516  17.4476237407
O  20.5438339749  36.5070339192  28.7248696954
H  20.0949847063  36.0388363820  29.4912037024
H  21.1505553683  37.1019369847  29.1105822887
O  11.3099230267  11.0644887392  37.1985655149
H  11.8297917213  11.3583342860  36.4400244252
H  11.4530907078  10.0824346130  37.2272147093
O  16.5195814314  2.9824354184  36.7996942213
H  15.8771804008  2.9960010532  36.0333408156
H  15.9513131564  3.2630779418  0.2663791936
O  14.2405764719  13.6102380209  5.8254884009
H  30.3672242253  2.9095898248  1.2632809390
H  14.7188378338  13.3319088582  6.5776310567
O  11.1044864050  33.1380521458  31.2114334363
H  11.7698962490  33.2933822521  30.4985520782
H  10.8598448438  33.9907850035  31.5830599614
O  25.5728907183  0.3780381582  25.7774239124
H  24.7086715887  37.1916312129  25.9737194881
H  26.0087352170  0.3261328198  26.6114024308
O  23.2213356677  35.6901422095  31.0120767029
H  22.6724527323  34.9486722834  31.1319900366
H  23.2096654538  35.9087699580  30.0260370195
O  26.2160955072  29.1820320302  18.6208329421
H  25.6294650170  29.8035609116  18.1857111145
H  26.9912716965  29.0580406582  18.0784494045
H  6.1113253943  21.8067319184  17.8812527057
O  6.7764025049  36.7219186770  3.7614812731
H  5.8866425057  36.3307012979  3.6176431965
H  7.1291639300  36.9127430652  2.8877133256
O  0.7181671338  4.3253965651  31.5369543164
H  0.3611046709  3.5453204094  32.0514557847
H  0.1212685433  5.0641709858  31.7352604518
O  37.1737670141  12.0779829624  20.0290550526
H  0.3905620352  11.2294630954  20.0037732086
H  0.2033730704  12.6168586569  20.7426843516
O  5.6407009901  5.5312299467  21.7789374248
H  6.1719603832  5.4837346386  20.9413649805
H  14.0217760855  13.0803293339  24.4829061103
O  14.2889539313  18.1367974720  34.2556431610
H  14.9984093295  18.2280704930  34.9730753545
H  14.7969114218  17.8534573589  33.4394252382
O  24.5854165024  21.8558266006  22.7317339454
H  24.1716802800  22.1219816355  21.8728351365
H  24.7486153915  22.6913308369  23.2168748682
O  26.9490994010  25.7817214146  23.5040879680
H  26.7944275315  26.6742087373  23.7849777085
H  26.0778102514  25.4103977695  23.5169855546
O  17.3628614592  9.3680076364  22.7316303428
H  17.6930600634  9.8686974872  21.9934305477
H  26.0484031747  29.2385282989  32.9829268917
O  18.4195667835  2.8648026138  34.2547585258
H  17.8017294589  3.6395465961  34.5751970789
H  17.8449098407  2.3075166293  33.6662349660
O  13.7960122964  9.2041527086  32.5733759716
H  13.5531483865  9.8710731620  31.8883127974
H  28.1219386541  35.0928975082  9.7839532786
O  30.9168187239  1.5603660795  15.2762809453
H  30.1750424172  2.2320011661  15.1186867779
H  30.9062011282  1.4930459758  16.2391114505
O  18.3118105511  17.2477607272  9.7952464003
H  17.1826211409  4.6336288674  27.1904155417
H  18.5285409148  16.9427638994  8.8939959450
O  21.6883644521  35.9205604495  9.0327278854
H  21.2598461712  35.9026231143  9.8896540061
H  21.2842673463  35.2632160439  8.5121548331
O  30.9194107172  27.4739319656  21.0055620942
H  30.5162273611  28.3060752846  21.3593677677
H  30.1193957419  26.8691623066  21.1405969544
O  0.0595171752  2.3402988007  15.2500559098
H  37.0082306618  2.1567067119  14.3897240622
H  8.8353137143  22.3704550532  23.4423675803
O  31.4306832702  0.9472327732  18.0270904968
H  31.4363953707  1.7169683506  18.6435805982
H  30.6938079580  0.3097860830  18.1726587121
O  16.7352470686  20.9766044076  15.1463718907
H  17.0947048017  20.5617132912  14.3278702037
H  15.7776327844  21.1246964145  14.9163379813
O  14.0556801841  36.2381540657  28.8067212984
H  23.3430276449  32.1061433164  22.0143521104
H  14.9231350597  36.2652866158  28.3612878141
O  7.1512301582  28.6189437913  6.0444074138
H  7.9670496653  29.1843062181  5.8038691881
H  6.9612677036  27.9095740579  5.4117783400
O  28.2372037174  2.0658031379  34.0093257384
H  27.5846093399  2.2540759609  34.6665013985
H  28.0239769330  1.2344745235  33.4819332853
O  14.7729627775  31.9898909133  28.3342718769
H  14.6075626075  31.1780650301  27.8709760581
H  13.9142456276  32.3375978212  28.7567873274
O  29.3699535396  0.3404028084  23.3167529062
H  28.9595609337  36.7045290283  23.2042547036
H  28.5799986047  0.9119397537  23.5066054226
O  18.7702889182  1.9497842804  4.6979370772
H  18.4212997888  1.2050083605  4.0799439224
H  18.3493407019  1.9273590999  5.5987151731
O  8.0805025631  10.0602120326  24.0386231842
H  7.6088041245  10.8349900323  24.4433996146
H  7.8695089525  9.3312902256  24.7267237087
O  10.2341508524  16.7840869929  3.5555865301
H  9.4115785068  16.8235942551  3.0273860114
H  10.0214650781  16.0226664019  4.1175124795
O  35.9411873418  10.2021136872  17.7276998540
H  35.6247348296  10.2530449861  16.8225416204
H  35.7428959150  9.2867207613  18.0390509492
O  27.3903915612  9.9680226785  12.7782294193
H  26.6408651238  10.0139088492  13.4698515765
H  27.7440501301  10.8370312277  12.7239325176
O  22.3732792360  36.5020064569  26.2042870804
H  22.0385600505  0.1470224423  26.3412025500
H  22.5607054846  36.3984801815  25.2640866176
O  12.9928502652  30.1848663070  13.2106014628
H  13.6086786400  30.0436754909  12.5112083545
H  13.3245220526  31.0574087634  13.5488615596
O  14.4703662649  6.8222594488  13.9480460236
H  14.8485864311  5.9806211345  14.2642430032
H  14.6287330379  6.8489887156  13.0117217374
O  18.5725081844  4.7799544376  17.8046251443
H  18.1916927413  5.3431814576  17.0941686830
H  19.5160432233  4.9932898985  17.9131948595
O  12.6230352954  5.6765881423  16.7955330160
H  12.2742424964  4.7750327730  17.0933517872
H  12.0195165660  6.2308273721  17.3869398278
O  31.8759287776  34.5796086119  14.5034163215
H  31.2115382286  34.2005482976  15.0954996525
H  31.3487177674  35.0227528485  13.8111977884
O  30.9086442775  10.2392254685  21.8991385461
H  30.3888993788  9.7635227006  22.6517281421
H  31.6412380175  9.6117560026  21.6193988197
O  27.4759575910  35.8121788558  14.6391956230
H  28.3875763561  35.8914253795  14.2980299959
H  27.2299579880  34.8902783822  14.3567642165
O  6.9822326796  2.3190440008  30.8585602111
H  7.8798635175  2.3828187878  31.2727189347
H  7.0912198972  1.6933661374  30.0961615189
O  17.8961218388  12.7155615447  23.4871510416
H  17.5420544990  12.1111654660  24.1453859699
H  18.2262854155  13.4735903817  23.9983904147
O  1.6768003295  13.2271303968  24.7621106249
H  0.9449381433  12.7337319809  24.3109418937
H  1.2493422921  13.7935020893  25.4478409114
O  13.3040747079  35.7926283862  18.4575059468
H  13.0047371876  36.2098642387  19.2901987560
H  12.5854381262  35.0973207927  18.3662294510
O  20.3108149297  21.4056526763  12.3580530738
H  19.4917436247  21.4784586016  11.8872086861
H  20.3950105602  20.4454299233  12.3044335875
O  17.8366115011  0.3190892075  2.9392020958
H  17.9965424545  36.6398322538  3.1923849415
H  18.4224821008  0.5054747538  2.1877196516
O  11.2519647689  18.7838017458  29.3597092152
H  10.6735503607  18.3673693476  30.0318726232
H  12.1681949555  18.3715906663  29.3253704539
O  27.4661122560  7.5765214742  9.6794732801
H  26.6068438878  7.6859994556  10.0727551312
H  27.2923342992  7.8018460356  8.7788043045
O  12.4026253768  3.8772544011  13.5401960528
H  4.9639589412  5.5776107502  9.0797518853
O  22.5929727937  28.5833826734  19.9348165192
H  22.5293605482  28.5151545980  18.9496696430
H  21.9284470213  29.2815886053  20.1796149912
O  18.9348722359  3.4577783165  29.8899681792
H  19.5442523544  3.7066413585  29.1764303095
H  18.0767275056  3.3637716306  29.4424314539
O  3.7908686028  6.3470711492  18.2586522678
H  15.8346084560  36.9590376245  26.3475428243
H  17.2488204757  36.5591376490  26.6426830390
O  22.1023026689  13.4684233677  36.5831271347
H  22.2566362130  14.4548488197  36.5419527091
H  15.7722901496  6.2170685403  18.5035951942
O  13.3865192004  36.2960319469  21.2505663744
H  12.8551348333  36.5804262765  21.9797665463
H  14.1896547267  36.7689949434  21.4067441397
O  24.9905324463  5.0383876617  29.2198256298
H  25.0062480686  5.8898312638  28.6827140871
H  22.7832249486  20.7681566462  31.9058217673
O  19.6019711861  2.5044511419  25.7367904789
H  20.3403843313  2.3221350723  26.3891018473
H  18.9889008352  3.2718246357  26.0144470668
O  24.5259068925  8.1696526432  19.3398061780
H  25.0396714357  8.0506294776  18.5280114143
H  24.0310641500  7.3404946164  19.3878860310
O  21.1267460562  13.8773367474  29.8425582207
H  20.4394875965  14.2533630587  30.3849028391
H  16.0618587889  23.6721939027  35.1229778207
O  17.7337909880  9.3036827164  17.6406577745
H  17.2008199701  9.3117879698  16.8408285384
H  17.4990274332  10.1033018426  18.1136021840
O  33.4880011645  2.5669284887  15.0106078535
H  33.7810797839  2.5960157136  15.9265161748
H  32.5778139209  2.1403771427  14.9660234468
O  25.5886114560  2.2342067173  10.3356076635
H  25.0005982497  1.5460414240  10.5600550437
H  26.5035620053  1.9350524679  10.7026653486
O  36.9156758692  11.7531250698  23.9422965677
H  24.8273746416  33.3727815949  33.3195834947
H  36.1422969821  12.1738317614  23.6200236977
O  7.0716520181  29.8567854015  22.1962899753
H  7.2636838241  28.9812280801  21.8850490544
H  6.1028202702  29.8697132126  22.2016874852
O  36.4482109480  14.6397905954  2.5748324081
H  35.7673519026  14.1538773033  3.0036505618
H  35.9553240149  14.7907373821  1.6795188664
O  0.8516315346  35.6854736933  25.0187724272
H  1.3389841121  36.4790161146  25.1894572339
H  1.3425289964  35.1924219307  24.3375066489
O  18.4802472845  35.8663204306  12.5883329093
H  18.3592673204  34.9791284067  12.2094424691
H  18.3689389076  35.7790771137  13.6006027772
O  24.3396444200  30.6629920166  17.3252542746
H  23.8171462574  31.3836285145  17.7502708326
O  23.3813958880  10.8348017725  0.8647568780
H  23.6895746309  10.2659232129  1.5928319418
H  22.7447391262  11.4814068618  1.2582470352
O  24.6027276661  3.5591033311  5.0296250175
H  23.9914909251  4.2392236026  5.3218351227
H  24.6734430652  2.9520705909  5.7993510971
O  34.0034066177  3.5128594506  9.4405152893
H  33.2503203558  2.9180739313  9.3210644255
H  33.5758665939  4.3337719732  9.6909937770
O  13.4673628282  12.4485297544  23.9892331342
H  12.7079476237  13.0652527158  23.7473026574
H  7.4994007731  5.1458575836  36.7042410030
O  14.1222957208  19.0271092551  20.2806729274
H  13.7393277711  18.4447203440  19.6145767604
H  14.6512898543  18.6098758733  20.9465978957
O  18.3620513875  22.9300426937  37.1181356542
H  18.3354293511  22.8556810708  0.8658452174
H  19.1526835225  23.4628254987  36.8735112708
O  23.5568377917  18.5985843844  36.1263279275
H  22.8302444245  19.0807332822  35.7804306830
H  23.2094389631  17.7515895181  36.3110601438
O  24.9002637772  4.1437660706  31.9239777700
H  25.0264040721  4.2035386503  32.8763202719
H  35.2277777021  33.3279001688  16.4705136618
O  20.7881856949  10.6885231510  23.7791785638
H  20.5460630615  10.0902292209  24.4553177589
H  21.3130432164  10.1217765935  23.1207730951
O  13.1025566701  1.7890905091  31.5952572180
H  13.1075137834  1.9350730908  30.6372029229
H  14.0247282483  9.7800771172  33.3590373610
O  15.8597878051  7.7957669786  26.7868441778
H  15.0784180428  8.1365210304  27.3788105846
H  15.5256768296  7.0526328019  26.2968336087
O  17.8502186801  4.8587413172  26.4795402828
H  11.2803452440  34.2018676522  36.6398057229
H  17.3583959177  5.0105803750  25.7145925887
O  15.4339986210  2.9682355246  21.2167634668
H  16.2158135539  3.6284161975  21.2248010478
H  15.6783591127  2.1429283105  21.6137300072
O  18.5293363237  17.0207001518  31.6369472439
H  19.0656931901  17.3907001989  32.3172325700
H  18.3948853224  16.1200833499  31.7590226741
O  2.3629860199  25.1095201312  4.9230439639
H  1.9077171657  25.9943167765  5.0249553375
H  3.2928443241  25.4244054147  4.7412289237
O  25.4941728400  36.2213643848  20.3840915564
H  25.6147169464  37.1441735970  20.0494595508
O  29.1452549963  18.6608721949  20.0732380922
H  28.6907154908  18.2362387080  20.7900467410
H  29.8488227262  19.1716607273  20.6155391265
O  1.9768341127  5.0062348468  34.8308280786
H  2.3313155617  5.5839128098  35.5275914573
H  1.2435084259  5.5594706363  34.5451674252
O  3.0563163351  5.2067782659  21.4389063115
H  2.1236752463  5.4445561945  21.2687963336
H  3.0635760397  5.0298960751  22.4091015898
O  24.8100701345  14.5281780701  22.4136137043
H  10.5526933744  18.0656140643  5.2439161377
H  24.9748782026  15.2641999800  22.9725361870
O  22.9271125923  6.7583171697  35.5910609011
H  23.0616688489  7.7348857080  35.7972376284
H  22.1116463444  6.4454502747  36.0514850539
O  22.2990773912  6.7612298411  26.5478397532
H  21.9371628585  5.9509047049  26.9936008164
H  21.5556557116  7.4092178021  26.4933511328
O  22.7240816255  0.0914382764  33.1292242627
H  22.5446956602  0.9653277139  32.7794065155
H  23.0614446470  36.8994498813  32.3404170985
O  24.7350236135  23.5683379403  26.4869974829
H  23.9035719558  23.0979332654  26.2962365370
H  25.5519053589  23.0113894362  26.2746666197
O  25.9418975487  34.0309877266  24.2323232392
H  26.0543535487  34.2856503412  25.1880301803
H  26.5034219936  33.2224116765  24.2290789314
O  16.9540958211  5.1578795048  34.2797622178
H  15.9818957279  5.1670159927  34.3424630180
H  17.1368772262  5.0928331599  33.3136709043
O  30.4389646608  0.7264011769  27.6320689637
H  30.4827633320  1.4833184610  27.0451608272
H  30.1017277139  1.0665930060  28.4623130946
O  26.8254561321  37.0905102960  32.6588430715
H  26.1157730824  0.0237223154  33.2908256361
H  26.5722756050  36.2346642971  32.1990980906
O  13.5171003919  35.0637102913  7.9830962242
H  13.6357446301  34.5376390676  7.1722934187
H  14.3939063656  35.5014815300  8.2434076609
O  28.3212649819  3.3960639916  31.8019462005
H  28.3431266682  3.1422679187  32.7186872079
H  28.1352092850  4.3236705399  31.6463504270
O  13.9277920998  5.1907043093  33.9658929142
H  13.3158570977  5.6689364844  33.4572750715
H  13.9563963205  5.7377417938  34.7796744315
O  24.4889704805  2.5938697932  19.8359718141
H  24.6249972450  2.6293940816  20.8008967291
H  23.6143455487  2.4770719709  19.5461100842
O  27.2646164912  3.9202138035  36.2588863925
H  27.8830444594  4.5820636404  35.8040531365
H  26.3429814210  4.2515892002  36.1442628763
O  4.4863097357  2.6450019586  32.1292470914
H  4.2488147974  3.5783600074  32.2190619320
H  5.2775678123  2.5382535993  31.5665931683
O  32.6908342977  1.1374212693  33.6396428600
H  32.0815588936  1.6371314930  34.3168113898
H  33.4178064627  1.6936247781  33.3730983634
O  25.6217238444  1.7608125435  30.5060251086
H  25.6584643922  2.6742250482  30.8833391388
H  26.1356871146  1.2707707484  31.1949886284
O  30.0269538782  9.0878808356  30.6990673464
H  30.6725677879  8.4008153979  30.9170260752
H  29.3368352898  9.1528414711  31.4093943813
O  21.3040751032  17.0104480547  33.5881014999
H  20.7157344572  17.7223717796  33.9778600208
H  21.6317205980  17.3020883814  32.6954601173
O  4.2452270656  1.2542216123  34.4439393618
H  4.2525635281  1.7755048904  33.5800423173
H  5.1654445795  1.0481710759  34.6583974498
O  13.7541749535  4.3083374325  1.4103556171
H  13.8090171526  4.2301093047  2.3215728862
H  12.9217937264  3.8395701761  1.2132005270
O  20.3810245228  3.7047945621  19.7398865187
H  19.4965345371  3.7835172876  20.1906093417
H  20.9898184122  4.0603623749  20.3938623471
O  30.6663887651  35.9450105141  35.8149852570
H  30.3704959304  36.4017648205  34.9802548913
H  30.6947133735  34.9824612184  35.6801304776
O  11.0894568814  21.6944773894  25.9265231254
H  12.0667611307  21.8202679849  26.0541747016
H  11.0550545797  20.7816472013  25.6009592618
O  28.6059084796  29.4414479385  30.9540755781
H  28.6149600848  30.3690611031  31.3007113196
H  29.0292514041  28.9003771129  31.6924509023
O  33.2276604320  10.8154722216  9.8656397866
H  4.0506968823  6.2683253143  7.9626400796
H  19.8141886957  33.7621504552  7.2982595919
O  8.5967571375  2.7353892805  35.1188570044
H  7.8609420223  2.1212945854  35.1237457490
H  8.1968658957  3.5791486366  35.2962653100
O  37.0927157984  9.2709191824  36.0265156716
H  36.7005528135  10.0425135685  36.5091442727
H  36.3456433444  8.7883564775  35.5300510629
O  7.5327942049  34.0144663201  16.4391208998
O  9.6736579812  35.3358457754  14.7894216956
H  9.9046690236  35.0037862894  13.8771456830
H  22.5544141965  15.0291925904  17.9686181744
O  23.0305855177  9.6038845129  35.9261707044
H  23.0793214033  10.0957072289  36.7918194400
H  22.1420783435  9.3699193620  35.6767424593
O  29.8394910504  20.0828968540  9.6383080491
H  30.5038776156  19.7558179852  10.2916767823
O  20.3535724677  8.3007087783  17.5880009100
H  21.0869237412  8.9049723470  17.4457005398
H  19.4982420883  8.7483427600  17.3775512067
O  9.0557788880  31.3330766513  23.3964493967
H  9.7132160459  30.6410766928  23.5630141522
H  8.2002148543  30.8941445938  23.1167652576
O  13.1965698181  19.2969161117  0.8705071481
H  12.7661403915  20.1641687458  0.5392067074
H  7.2776258145  23.1691907214  11.4388177049
O  35.2111646880  1.4273117861  10.6292647124
H  35.1976888226  2.4385540533  10.4648398972
H  36.1288411972  1.2488501974  10.8826032229
O  14.3504354301  23.9856104085  20.4446420088
H  14.5678189896  23.1939846228  19.9229892771
H  15.2287923760  24.1439710626  20.9705327820
O  33.4201312780  5.5849349405  5.1402486062
H  32.8729587816  4.8777839208  4.7996490044
H  32.8293919979  6.2346458910  5.5272677579
O  12.8125669333  28.9640443973  15.7319321496
H  29.8628702199  6.1284415816  6.3645615149
H  13.0789228344  29.1448534313  14.8184025763
O  20.2112816134  9.6655196019  5.0560174203
H  20.1729814711  10.5018435773  5.5300266865
H  20.4807237968  9.0417548439  5.8103494156
O  34.9608523420  21.1178813268  7.6095167919
H  34.0764559280  21.4358445073  7.8799541319
H  35.5950525268  21.8924779239  7.4988851187
O  20.1299008238  8.3808956109  20.2267859656
H  20.1060305238  8.3919292386  19.2509226456
H  21.0367215843  8.4510815813  20.5557056307
O  31.5913589752  16.9787877495  4.6491684690
H  31.7580329827  16.7604754797  3.6981455693
H  31.9357432498  17.8772254360  4.8214104612
H  2.5398984268  0.8987617072  13.6239140447
O  18.4444851892  12.4271655190  8.5570051360
H  18.0321741843  11.8747052774  9.2169904120
H  19.3701230737  12.3669330307  8.5802754072
O  30.8042765999  20.9745897526  7.1951204229
H  30.1324984887  21.5120502909  6.7384466639
H  30.3942972149  20.6036492775  7.9817401200
O  34.2495431719  15.5066275373  10.0521140295
H  35.1907533929  15.7334077030  10.0109273472
H  33.9952389681  16.2456309405  10.6297152772
O  17.1692200899  6.8599322072  19.0395031129
H  17.7293595747  6.2174570656  18.5857808602
H  2.3667211717  18.1393037399  26.6171676960
O  20.1594144342  22.4120168431  4.5064849644
H  20.5371032424  23.1204615952  3.9315806438
H  19.3743596528  22.1006293592  3.9295353290
O  0.9488433302  23.3244536776  11.6423358010
H  0.8997546348  22.4726107873  11.2093308567
H  1.9243261829  23.4156300239  11.7637918934
O  9.5536242942  19.0142655310  13.4832556452
H  10.1383977151  18.7760940659  12.7185076424
H  10.0191710977  19.6904288522  14.0341322251
O  20.3807704369  4.2244002633  9.2483974135
H  20.1676908600  4.2971795105  8.2493821252
H  29.9761115385  7.7500236777  21.8303573504
O  10.0036669046  14.5175276517  5.4581523403
H  10.2913780675  13.6652357584  5.1118286312
H  9.0425212619  14.3943712979  5.6273998226
O  8.1959423882  24.5276347557  3.4453627732
H  9.0375220394  24.5914205333  3.9315194840
H  15.5914227173  26.4627487604  32.5197327654
O  12.5470413031  11.7904904299  2.0957771062
H  11.7305791510  11.9518081956  2.6089394458
H  12.1482872249  11.4636584240  1.2347319769
O  15.0341268954  22.5595609500  0.6680954172
H  1.0100631743  20.7100855254  7.6534821846
H  15.4488048681  23.0624863103  1.3263087439
O  6.2842948044  9.2613414239  28.3174289326
H  6.6652053312  9.6816594298  29.1059689693
H  5.9142745548  8.4348151228  28.6899929613
O  6.1592790353  11.8610625083  36.1698379166
H  6.9025897993  11.3079770673  36.5404267339
H  5.4427838245  11.1944752163  35.8939277806
O  11.6534471641  25.7834273220  13.8243485188
H  11.4374143736  26.7337100889  14.0063826329
H  12.6047433429  25.7123523556  13.7440859679
O  24.3683579809  26.0036667908  7.3729849543
H  24.7397574164  25.6057487734  8.1772340787
H  6.4730540180  16.5146197215  34.1234138775
O  9.9927143136  26.3984689336  35.5968445738
H  9.3984145875  26.0070395028  36.2168090660
H  9.5446809409  26.2397678617  34.7500626651
O  19.1973943710  27.7830580672  7.9387745823
H  19.4082211615  26.8229277854  7.8328777282
H  19.5396904518  27.9197192539  8.8699350542
O  21.4374297956  24.5808519999  27.5209192514
H  21.5811164679  23.7886798735  26.9181811535
H  22.3257657492  24.8028577928  27.8522304534
O  3.3256917864  33.1646305072  15.3339993827
H  27.1387263861  1.8911606455  4.0108393966
H  3.5708457289  32.5510452514  16.0556669449
O  28.8072699603  13.0354553263  4.6838516622
H  28.2330997281  13.6886485214  5.0677570106
H  28.5420578261  12.1542047438  4.9957329394
O  22.5543938019  9.5691512752  16.4980340448
H  22.9054860545  8.9803998909  15.7710472980
H  22.1314782269  10.2801781865  15.9256651971
O  23.4933916747  15.2837577054  15.3966014337
H  24.1203655162  14.8712846381  14.7368140253
H  24.0894145070  15.4401253881  16.1386668781
O  27.9341524220  13.0516888642  14.2006836257
H  27.0270484230  13.3009287617  13.9182891631
H  28.5785416619  13.4737862240  13.6145206971
O  0.7877694192  25.8019432290  9.9229473589
H  1.2545248548  25.6556161618  9.0493139228
H  0.9875925129  25.0013799236  10.4355952227
O  18.3639196830  23.2235991973  24.2539987093
H  18.2891183543  22.6010602832  24.9899604047
H  18.6564635302  24.0753847399  24.6347373670
O  7.6937907285  18.8037509093  32.4587962945
H  7.2685709207  18.5671624847  31.5818005533
H  7.5123395381  17.9708015498  32.9726284939
O  27.8777108679  11.3620254651  1.9576560130
H  28.3474016901  11.7922166413  2.7647077865
H  27.4641850535  12.2066586453  1.6353827746
O  2.5209173724  13.9989541304  32.2342356414
H  3.4549616942  14.1459532187  32.3226348541
H  2.2035257225  14.7830669657  31.6983203480
O  23.8074205568  15.3180550440  34.7117241925
H  23.9921281059  15.0849442437  33.7734827560
H  23.0562401065  15.8913366135  34.5880860599
O  27.9180275723  25.5679894744  27.4118737464
H  28.2068515064  25.9344735284  28.2689647681
H  27.7974626565  24.6240995303  27.5558939847
O  19.5899549914  15.4820916136  27.1390763390
H  20.0117627317  14.9205487246  26.4793806747
H  18.9937491223  14.8260824383  27.4845314246
O  25.8998229557  16.0064810148  25.0077433524
H  26.1474505474  16.8192914337  25.4835052583
H  26.6684585569  15.5005930496  25.1656611942
O  18.1613995868  16.6763614515  6.9120327288
H  18.3310397321  15.8383931534  6.4642525673
H  17.2929815826  16.6398095806  7.3161284579
O  4.1152473307  24.5322949706  36.9195238210
H  4.5488045942  24.9336599096  0.4273819529
H  4.3015776385  25.2215143262  36.1913097657
O  24.1750574485  22.1271560723  6.1214361718
H  24.7793775504  21.3783585674  6.1979756962
H  24.6063307799  22.6938615701  5.4611869661
O  35.2166017533  26.0524525594  9.8211930993
H  35.8797794255  25.8206185250  10.5154549804
H  35.4648056392  25.7204817086  8.9107585763
O  16.5893960107  7.1511269129  0.2546607026
H  16.7856130887  6.3936196841  0.8552360286
H  16.2932528538  7.9494080512  0.7477326849
O  1.2942710168  32.5145657389  18.1164518322
H  2.2744981400  32.3848476129  18.2552633608
H  0.8912583094  31.6974444642  18.4757085896
O  5.6597759129  25.5952358736  30.7049291589
H  6.4051727912  25.6921902772  31.3388757933
H  5.3038608326  24.7069334269  30.9314862006
O  8.9137179775  16.8853058525  0.2310883450
H  8.2190129172  16.7319667533  0.9311789544
H  9.0849565649  17.8209969736  0.1305290001
O  14.0292464787  30.0878153056  33.3430183243
H  14.4786412571  29.9636631023  34.1713442026
H  14.3587278167  29.4425746728  32.7459500474
O  9.6439091824  20.9747634855  32.5937670202
H  9.0695868779  20.1989411449  32.4696133462
H  9.2205603006  21.5817907279  31.9663272672
O  11.9192269945  8.3681238597  0.1017899060
H  12.6709074032  7.7477257091  0.0509509141
H  11.1467250763  7.8643702892  37.0457453672
O  13.8258416897  18.5130092330  14.0187295039
H  13.3683234043  18.1515515523  14.7902645718
H  13.7925481167  19.5127695772  14.1311117138
O  0.1241434430  30.8733103417  10.5690909031
H  15.6624879802  12.8378154441  31.0622027170
H  8.1997846903  29.0729341309  11.3935239651
O  10.3369810467  24.3886724606  5.0348715198
H  10.7675020610  23.5980776507  4.6737399633
H  9.9317924923  24.2326074111  5.8824670578
O  11.9653432632  22.7637090852  21.7566250492
H  12.8177512240  23.0534374279  21.2973215595
H  11.6512081703  23.5430665693  22.2422852766
O  16.0062260908  6.7130066200  22.1212431216
H  26.1836267017  27.2818111120  19.3523070764
H  25.4765089895  26.4837161988  20.4115600078
O  8.0232686147  14.6809906314  23.0384762989
H  8.9164413821  14.5714626237  22.6787361710
H  9.0875720258  34.7005778801  15.2188632123
O  3.2544277746  18.8481252107  9.2598686807
H  3.5287162608  18.9035334250  8.3450766547
H  3.0547678509  19.7430434460  9.5222296223
O  15.7859781152  11.2906934957  37.1405766580
H  15.3724062941  12.1883555416  0.0675714655
H  15.2774357904  7.5248473860  5.1577578184
O  25.9003245818  11.6088254482  8.5316660689
H  25.4322336964  11.3519377076  9.3486261354
H  26.3981639353  12.3102253780  8.8590080340
O  5.0666648011  24.9997620971  17.9223725206
H  4.1377958022  25.0225415288  17.5405537239
H  5.2756260938  25.9683967300  18.0310024023
O  31.2195933733  30.5241777132  3.7772804935
H  31.9917406736  29.9895153857  3.6827331452
H  21.2559949451  21.0654608919  4.8945429959
O  0.0810430208  29.2636382233  13.1732568514
H  0.6970754818  29.9754776038  12.9346089614
H  36.4902276695  29.4962771762  12.7813827291
O  21.5233754642  5.2708856521  21.8546852121
H  20.6067013967  5.6616038210  21.8911898426
H  21.4063465625  4.4355428828  22.3308638494
O  14.2824142967  26.4413247419  16.5731219400
H  15.2168243214  26.0884334632  16.6558414027
O  7.8814434350  20.1437790519  26.4678147390
H  8.2201308078  20.1414850800  27.4730524701
H  8.6481744806  20.0130210949  25.9276254765
O  30.8680354176  29.7850445076  10.2033802550
H  31.3912453024  30.1503624107  10.9175690542
H  30.4247593229  30.4492107615  9.6342340997
O  9.6625205934  16.2960080679  14.7174701485
H  9.5360619298  15.8318354375  13.8728847244
H  9.4906749251  17.2814889010  14.4054759447
O  10.6361657001  29.2011605460  7.8088133859
H  11.5512196381  28.9295629867  7.7199498183
H  10.5197585600  29.5301085391  8.6992814297
O  6.7791538043  21.3440351839  17.3106566578
H  19.3163921043  28.7412702205  4.2583147308
H  7.6482845260  21.0214200630  17.6978243006
O  2.3062481378  25.1108844482  16.4756986601
H  1.7161761554  24.8170137570  17.1536821020
H  2.5969112857  24.3739351129  15.9863581596
O  19.6697979146  19.8176412342  14.9704057826
H  20.4603874922  20.2923992760  14.7785752814
H  19.9055224652  19.5678275487  15.8867628043
O  3.3256723263  17.8915758658  26.5399859426
H  3.3235310907  17.0832765713  27.0443854787
H  22.6205337454  5.6737812468  4.4488372071
O  8.1534984394  13.8489635296  1.8033199991
H  8.1429116590  13.1195617683  2.4381898325
H  8.6505829920  13.6503198565  0.9912130880
O  11.3588573365  22.2579245565  3.2793724596
H  10.9270466085  21.4067379084  2.9310284477
H  11.7190367939  22.6925752628  2.4699845126
O  31.9672341717  26.6734050051  11.6720668410
H  31.5119896282  27.5020963150  11.3305913806
H  32.7234259444  26.5678451527  10.9776911914
O  14.4544011575  15.0299562531  14.2920168747
H  14.0106490090  15.0949636592  13.4194780604
H  31.7116956409  0.5608479572  32.3030826664
O  11.4730941994  21.8319660251  7.7740928432
H  11.9437944774  21.4518408437  6.9856347123
H  10.5448230891  21.8702672994  7.4855369834
O  8.5500733883  8.6800381968  21.7249178140
H  8.2532535340  9.3031608719  22.4560420073
H  7.5866145283  25.1473381582  3.8947368726
O  23.3281707934  15.4337204347  27.5784710793
H  22.7536469188  16.1564308258  27.2711698201
H  22.8298156585  15.0204107263  28.3102846052
O  1.1373326525  21.3694653779  8.3127875564
H  19.4264710364  6.0378789162  2.0890205940
H  1.9630905771  21.8247892644  8.2195970044
O  20.1773186195  31.4778035542  11.3682759168
H  19.4356740728  31.4335556168  10.7618613010
H  20.9211039103  31.9964923989  11.0162713922
O  22.7049495310  5.6536550228  2.4691145692
H  21.7642526599  5.7612243711  2.2371713737
H  22.8451215005  4.7050878020  2.3255023357
O  27.0444146473  29.8994378528  21.2869994275
H  26.5294838743  29.7499223805  20.4691277820
H  26.2435404434  29.9976606238  21.8153746878
O  3.6843175159  21.4982167101  11.7160225522
H  3.5461119913  21.5384859864  10.7569844373
H  14.7261104289  16.7485686143  7.0663221819
O  21.7267401663  20.5289783345  34.9436854318
H  20.7532887163  20.3986151947  34.9954029460
H  21.8145074665  20.2890136633  33.9913284313
O  10.1330983613  22.2397689188  11.8350246353
H  9.1782101242  22.2555244017  11.5917174507
H  10.3474802202  23.1963072130  11.7326742997
O  30.1150807111  9.1277876061  19.4497423794
H  30.4492360529  9.5892660467  20.2263082540
H  30.8886873200  9.2366546825  18.8352340914
O  24.6368245114  23.4876858620  16.2133790762
H  13.7595994266  37.1794994127  28.8412510915
H  25.5053843769  23.1900633760  15.8490605056
O  27.2486874847  2.1294158420  20.8162298628
H  26.8480485059  1.7122811270  20.0607165826
H  28.2002754847  1.9016720775  20.8023445616
O  3.6779784992  19.6886201386  1.5777778825
H  3.8343941918  18.9076941012  2.1754448170
H  4.4580817154  19.7234398028  1.0543531106
O  19.0813441369  14.1749644060  21.1929358626
H  19.2948469120  14.0238224816  20.2522603381
H  18.9022739123  15.1458944431  21.0756466080
O  10.1399336375  27.5573952389  21.3185319698
H  10.0602158668  27.4296406422  20.3827823404
H  10.7764179305  28.2851681276  21.3587912452
O  19.0316009875  13.2100617602  1.4649474078
H  18.6861049967  13.8332475387  0.7887622119
H  18.3545281076  12.9698911928  2.1314158270
O  0.5723663178  24.0908483826  19.6097666582
H  37.1876305236  24.0754414109  18.9004148825
H  1.0896084500  23.2638027201  19.5465442712
O  18.3289851964  8.3470501083  30.3902151438
H  17.3558291766  8.3074670475  30.7044012439
H  18.3362140574  8.0725291664  29.4414043541
O  15.5698533420  13.0721174525  7.9680404202
H  16.0430195722  12.2861399170  7.6607106181
H  15.1541199377  12.9011582720  8.8122746102
O  12.6000176204  16.5793259337  1.8448897977
H  11.8197160458  16.5707177788  2.3852004758
H  12.7146654599  17.5434632170  1.6879457376
O  0.4901794351  19.5724186899  13.4350372055
H  0.5731052386  19.3905870468  14.3867507338
H  37.0315419767  20.2328186086  13.2941556455
O  18.7884290885  19.0294390862  3.9772276202
H  18.6601740518  19.4237353143  3.0548248546
H  18.3296711997  18.1652149411  3.9367267739
O  7.7992819027  27.5039161484  15.5855093476
H  7.4339267238  27.5602156048  16.4951995320
H  7.5383691373  26.6323438404  15.1752583886
O  35.4647713571  1.0182901616  19.5213914114
H  35.9645204176  1.7338307483  20.0283534040
H  35.9903738830  0.8966746433  18.6916961484
O  17.3123436492  15.1720295882  15.7416118038
H  17.9796622046  15.4691015708  15.0688098175
H  16.7659522889  14.3963332570  15.3697494899
O  28.8165194671  10.3769032802  27.2711105596
H  29.5791126290  9.7950064036  27.1692403749
H  29.1573753589  11.2083277804  27.6649527909
O  18.6164737382  7.3286290502  35.4120050500
H  18.0928494211  7.1947193229  36.1971543544
H  18.0280185827  6.6918777249  34.9096114515
O  5.8359698509  16.0857042418  17.0459387759
H  5.5918567479  16.1067232132  18.0214241846
H  5.7842044334  15.1703354535  16.7101874100
O  4.0278341719  29.3507793123  17.2382223215
H  4.2614831426  30.1069300523  17.8848042919
H  4.8152466476  28.7947158600  17.3572072716
O  26.6140366047  21.0204480563  33.2573641669
H  26.2712833856  20.2409827649  33.7116555103
H  25.8439355441  21.3932858416  32.8009699984
O  11.7785780135  6.7641971221  12.2301242706
H  11.5910883449  5.9182271566  11.7235789435
H  12.7054741344  6.9009314615  12.0707418047
O  12.6148043968  24.3532684632  18.0573281770
H  11.8466503797  24.4980616851  17.4855455562
H  12.5058438707  23.4198738063  18.2094922980
O  3.0551769673  14.8705573245  12.3906688055
H  2.6795264854  14.0730212023  12.8055448079
H  2.9579780729  15.5142077686  13.1207395585
O  25.5120256879  9.7559144595  14.8700786039
H  24.7395636121  10.0052816470  14.3243467754
H  25.7064885244  10.6765621327  15.2269069750
O  29.5342325560  30.8309326124  27.2984165162
H  29.3497470576  29.9412228870  27.6328045006
H  30.1351393297  30.5834624067  26.5514934939
O  9.2222750579  20.6968293664  17.9992780143
H  6.7242682205  28.9996435638  11.0256474772
H  10.0158346673  27.0790534228  26.1882677135
O  24.7727844559  22.0241132275  31.1493384274
H  25.6787510052  22.2979069373  30.8807232007
H  24.1465567361  22.7440170115  31.1363786560
O  32.9189442111  35.9598611533  27.2891593883
H  33.8227982164  35.8332751454  26.9581687984
H  32.4349051702  36.4086366973  26.5840589044
O  19.8740384997  4.3207145229  32.2846999868
H  24.2237729529  17.5810952572  8.0717788144
H  23.5961705854  18.6524762632  9.0001672820
O  22.6584747718  14.5256387931  18.7932909391
H  22.5409892591  15.1666804184  19.5375411484
H  7.7730097931  14.0529286126  23.6993636266
O  22.2594501397  25.9970568896  30.0970168919
H  22.3336162790  26.7892736973  30.7083426894
H  21.3060260879  25.8781863577  30.0239506053
O  21.8659145662  20.5846471107  32.1839636302
H  21.6665686242  19.7796069402  31.6672302165
H  3.2387318800  14.7308399863  28.1836695067
O  11.9028321308  36.7881647588  15.9305705058
H  12.3929791953  36.3580320188  16.6276197360
H  11.2198644666  36.1104872266  15.6373583153
O  26.1328611740  34.5389288560  27.0590515956
H  26.0903692941  33.6718359467  27.6209809380
H  26.9529768313  35.0206275586  27.2360500364
O  19.0886942225  16.9074755767  20.7406615597
H  19.9896655119  16.9345145239  21.0095505612
H  18.6820177802  17.6329235182  21.2503511343
O  19.1191811291  6.6682620564  22.0534610266
H  18.5937175724  7.1079789037  22.6963869379
H  19.2167655002  7.3939675933  21.3395024946
O  10.5776539198  18.3409481003  18.1531853042
H  10.0643148881  17.5718925410  17.8241776233
H  10.6046428908  18.2243940732  19.0977771771
O  18.0562007128  22.8329548161  29.6919506451
H  24.7892841619  18.4544294549  18.4836094758
H  17.2688568192  23.3221245155  30.0334186040
O  27.4460740959  22.1752125552  30.6070947378
H  27.4914212068  21.5815851073  31.3572797256
H  27.6900254563  23.0403967207  31.0595683545
O  25.6752783589  18.5716980778  34.3433645167
H  24.9422176726  18.6012101218  34.9398664280
H  26.4315741923  18.3939070015  34.8847872470
O  26.8555339063  13.1222326888  29.3198567546
H  27.7826918787  12.9343251870  29.0081901786
H  26.5758787516  12.5628651873  30.0540117196
O  30.1180128730  16.1154265419  18.9802633765
H  29.8293779626  16.9602233478  19.2488685280
H  29.3296478463  15.5965198951  19.2291174943
H  17.6320327731  4.3049353044  1.0461944020
O  20.1563846499  27.0541495002  27.1624656879
H  19.3825429121  27.2423491204  27.7360682870
H  20.4599235600  26.1141301178  27.2413592454
O  22.7631145928  30.4967809869  35.0843368346
H  22.7532517449  29.6538788104  34.7133753030
H  21.9947644490  30.4247543806  35.6477313901
O  16.1491872057  24.5661841056  2.5057634989
H  15.9735565985  24.7236065518  3.4568294060
H  16.9664433864  25.0133667135  2.2891452588
O  22.7803393102  5.6642602190  5.4505606173
H  22.0434866958  5.1830639596  5.7907325163
H  17.2250612644  7.6893396815  18.5340439396
O  14.1050446249  15.9581154605  19.4825040501
H  14.9229563679  15.7495181320  19.0451835369
H  13.3732689584  15.5798241719  18.9277284810
O  4.5140633571  8.0932011515  16.3914582408
H  5.3366479875  8.4680355517  16.7883237042
H  4.7449481380  7.7436872640  15.5271042018
O  20.0815538995  19.2296517400  27.1214931702
H  20.5575811773  19.7497368833  27.7828384253
H  19.4510297844  18.6356066507  27.5915442688
O  16.8177972211  36.4987227742  34.3210184319
H  16.6528482843  36.8127506148  35.1937179579
H  14.0065682313  14.8062441731  20.5827940475
O  8.6132198495  26.6342730289  10.9785341827
H  8.2980475321  26.8333875857  10.0655470987
H  9.4714124984  26.1507697141  10.8814840468
O  15.7572765523  25.5834884797  32.9164055942
H  16.7381729541  25.5204489747  32.9158484133
H  7.8179932082  8.6036137985  21.0917294731
O  20.2277016841  7.5959118441  32.1100239362
H  20.1161324304  6.6537400397  32.0964277847
H  19.5437418181  7.9085492164  31.4705782737
O  20.2219813865  6.5746335944  1.8572273443
H  15.3877903047  22.9007105929  37.0568091904
H  20.0364768170  7.5041044957  2.1746714304
O  19.6000232186  36.3008889411  23.5806998826
H  19.3283131228  36.1518451194  24.5134406633
H  18.9416731421  35.8296174078  23.0792439396
O  24.6335402969  8.5954405104  22.0511863664
H  24.5661762640  8.4384454400  21.0787790635
H  24.4715272565  7.7345539810  22.3885851464
O  9.3227117661  11.1593434022  14.4224201100
H  10.2157994949  11.3492757605  14.5091868901
H  8.8142456556  11.5079472652  15.1847780612
O  11.5745098226  11.1621617089  21.4696770361
H  12.4532279476  10.9629172845  21.7945120970
O  14.6518980568  11.8045553370  20.3248769337
H  14.3537006129  12.7000140868  20.6223375233
H  14.6451974007  11.3116084876  21.1485338474
O  27.1854396332  32.8800838072  7.1781587044
H  27.0986379181  32.2461211166  6.4288017553
H  27.4551307970  33.7204440428  6.7488586004
O  29.0739226774  22.4185688407  33.7625046058
H  29.4913668857  21.8776399439  34.4599820145
H  28.2176311783  21.9486639313  33.6322276249
O  19.9107663543  19.3285768991  24.3165801839
H  23.8619942156  14.4234305152  22.4203866732
H  20.0436905650  19.3269854345  25.2475084593
O  35.3304033329  13.0500235219  30.0005830480
H  35.6230135631  13.0394388275  29.0656814132
H  36.1132357908  13.2314327539  30.5562440861
O  2.1560111680  16.7180316613  0.4934990175
H  1.8710243662  15.9071265657  1.0004032979
H  1.8311110462  17.4051040360  1.1516463103
O  18.8305286982  31.8291763368  30.2913321320
H  18.9808573001  31.6600871925  29.2985220743
H  17.8932430482  31.4943861073  30.3417663910
O  10.2770276738  14.6034815182  26.1601296265
H  10.6449591832  14.2845440561  25.3426145476
H  9.6291373768  14.0279725209  26.6036040204
O  13.4431378769  11.3799377371  27.6766927367
H  13.3838125376  11.0535115775  28.5988727535
H  12.9673961251  10.7196586348  27.1515326937
O  27.0570494012  9.3101951560  7.4407656286
H  26.4622250300  8.7825627720  6.8829770881
H  26.4995609838  9.9666866540  7.8851229272
O  6.4387674624  9.4128083128  20.1039126623
H  5.5636807847  8.9504599255  20.0957019882
H  6.2059285783  10.4041857721  20.1564167601
O  29.4452249597  8.6886383500  23.5507174667
H  28.5219901511  8.8488346983  23.5728172033
H  29.8045485110  8.5997872270  24.4386347234
O  19.3537959841  12.3914952009  16.1486271882
H  19.4023132088  12.4591398179  17.0813139322
H  18.4234573537  12.6356832962  16.0051415131
O  2.3210286570  1.8317591677  1.3959403320
H  1.9069711510  1.9639136832  0.5774286090
H  1.6387526718  1.8852193674  2.0673425473
O  12.5917066920  1.9774368035  7.0334956364
H  12.1052592411  1.1785240128  7.3485444792
H  12.6097347640  1.9314701323  6.0438254223
O  18.5071824707  7.5293818473  27.2915485439
H  18.4513361239  6.5748152878  27.0359774051
H  17.5550932655  7.7199730919  27.1864366352
O  26.7719341700  9.6423670527  24.0802097627
H  26.1458883809  9.1897025373  23.4866112677
H  26.2086954266  9.6880826837  24.8736284963
O  26.8260902038  1.2949716037  36.9985866692
H  27.0168204297  2.2790897125  36.9745417832
H  26.0142709456  1.2916942794  0.2399225729
O  24.7423460910  19.4222239739  26.9388520152
H  23.9621342833  18.9370909454  26.8614490369
H  24.9968817401  19.5443995398  27.9072514588
O  19.4065871603  10.7155888161  30.8949985644
H  19.9965680522  11.0008297929  30.0933575821
H  18.9649111274  9.8830915753  30.4960671437
O  23.9377187361  9.8645103831  33.1605846058
H  23.4987701147  9.6516997804  34.0199522844
H  24.8248091184  9.4664034067  33.2063534268
O  15.0113547971  10.5533794558  34.5011364045
H  15.2094591412  10.5325894896  35.4737380346
H  15.6897206166  9.9391645512  34.1444426236
O  14.0225178858  20.8561915336  34.1079097465
H  14.7078526688  21.3781700517  34.4765152607
H  14.3122498458  19.9388175893  34.1204217020
O  17.9974704864  29.0906859926  34.1247304010
H  18.3349569303  28.2835056789  34.5226762072
H  18.4464436982  29.1837884745  33.2324999632
O  10.9006512134  21.5469536634  29.1215053659
H  11.2406903394  20.6698212488  29.4091982486
H  11.1931154859  21.5839669334  28.1651116035
O  17.1000465303  19.4648666035  12.6670927024
H  16.1767493385  19.3288057836  12.5402113347
H  17.3399239658  19.9613137972  11.8555713532
O  23.8928460680  8.4285283155  2.7923411593
H  24.8115895522  8.2679496259  2.4508222739
H  23.4246843930  7.5914527551  2.8205865169
O  20.4468511210  9.1889393940  35.4441339387
H  20.0012880105  8.3240603917  35.3854981150
H  19.9011988560  9.6527894910  36.0617739094
O  14.9034829301  27.8983012090  1.6048254411
H  14.4821676302  28.5941493142  2.1208382868
H  15.8567392137  27.9956591371  1.6753357004
O  25.4461217536  5.3475915052  16.9065614845
H  8.9847628401  28.1326022803  26.4852320469
H  14.4993561700  13.7301551483  31.6973491607
O  21.6425695217  30.5789520190  13.5235005573
H  22.4031404907  31.1585519963  13.3920962112
H  21.0706739950  30.9224339092  12.8141691008
O  8.7324371965  4.9801159476  25.8743879926
H  9.1529819603  4.1862213391  25.4177855672
H  8.9298552282  4.7752082591  26.7551466070
O  36.4761035453  23.1294256272  6.8952569453
H  16.9854182901  31.2277517204  6.4988457850
H  16.0345935685  31.9938345367  5.6450216526
O  1.3926936521  8.8309664609  2.6283665394
H  1.6660690517  7.9685596034  3.0335521263
H  32.4153629547  32.2404187229  7.2696098743
O  9.4810656659  2.5960411564  32.1766616547
H  9.3107913997  2.6215435101  33.1533492442
H  10.4133124792  2.8999951818  32.0714353729
H  15.2773836033  9.1270344769  11.3711587407
O  25.5513748191  25.7008550422  2.7492944942
H  25.5101805591  26.6775726052  2.9342622730
H  24.8420725387  25.5317424547  2.0579967598
O  29.2782368166  25.8657996147  7.0327576545
H  29.4848480070  24.9631671744  6.8519654346
H  14.2343588626  14.0172580680  15.7679677628
O  5.7867145789  36.9892057341  20.3310525759
H  6.7398186847  36.7866561356  20.4888171139
H  5.6304353077  0.6134652580  19.9336845399
O  17.6176240396  4.3430802772  20.6849529193
H  18.0411108317  5.1350521333  21.0273702537
H  17.6719453444  4.3136328838  19.7282893738
O  10.8803450811  28.1985706849  3.7189370402
H  30.5077710733  36.8066324301  10.0136422802
H  11.3501526696  27.6563216838  4.5136261977
O  15.4937664378  21.3475593191  5.2366302884
H  15.4162266269  21.0320397327  4.2794480709
H  16.0747017469  20.6271884404  5.5813024839
O  23.1336514111  7.6213300581  14.5854636125
H  22.4469594983  6.9641584450  14.3415868049
H  23.9057497827  6.9886854017  14.6005883330
O  32.3334627039  9.4594396806  14.0933684622
H  32.3815852848  9.2191831452  13.1190490672
H  32.0264208084  10.3557873993  14.0561479063
O  25.6369459527  32.2577006911  28.5675854945
H  26.2401968946  32.2659193079  29.3204290400
H  24.6897814704  32.2727098941  28.7911981107
O  2.3568330577  0.3929789051  14.4647800765
H  5.7194212974  4.7774388246  5.5244570500
H  1.5398630121  0.8143740222  14.7731058289
O  21.0635340597  26.4249314155  5.1940324536
H  20.1219862231  26.2442269166  5.0919592266
H  21.4414635567  25.6221446364  5.5936546907
O  12.6191055023  26.3966893821  0.5189640175
H  13.2808160761  27.0420099686  0.8860979260
H  11.8075286722  26.3895567775  1.0731390014
O  2.9821205492  2.3710807693  20.6516598110
H  3.8175107063  2.3804254564  20.0957588294
H  2.8872329160  3.2716348084  21.0215920852
O  27.5306255927  20.9717309925  36.8366765040
H  27.5087798839  20.8274001164  35.8613962490
H  4.5707023179  30.7096005259  20.6325540664
O  18.0019047425  20.7488073025  10.3702835550
H  17.1873287767  21.1041095578  10.0507383057
H  18.5619068430  20.3621018042  9.6438297243
O  30.3384561981  10.2295608124  1.0946109045
H  30.8938263298  10.3557231416  1.9087650316
H  29.6340955146  10.9335705557  1.1964851167
O  31.7189658626  28.2390337447  35.0677672653
H  31.1521757051  28.9105538311  35.6030397356
H  31.1285877911  27.7624668889  34.4458664974
O  16.5136708268  32.0288945123  14.2840143431
H  16.4087202590  32.7436993432  14.8945958893
H  26.5700925365  27.0755971063  5.2212117515
O  18.5937323674  25.8884191596  2.0054239855
H  19.3240116150  25.4617275387  1.4378287300
H  18.2068687676  26.6624215426  1.5887367012
O  25.6867004063  25.3390440078  35.6649304642
H  25.0489412767  25.1423754143  36.4164731572
H  27.8741030031  22.7500364066  0.0178299293
O  20.3945172936  4.2854733292  6.4742588066
H  19.7454539239  4.7456912388  5.9398729939
H  20.2104280995  3.3294427673  6.3953641264
O  32.9137440468  36.2751306588  30.1237097008
H  13.4479413168  25.6644842078  19.8087406727
H  32.6017568883  36.0203917171  29.2254126522
O  23.7817607966  23.9829496285  13.0413531579
H  23.4242354523  23.4766465337  12.2658152042
H  24.6223276787  23.5566462001  13.2006135003
O  4.9563517329  32.5922397110  35.0360974338
H  5.3301835377  32.6249533575  34.0880292663
H  5.6550966402  33.0877935921  35.4970373575
O  25.0711745068  1.5909461772  7.2870542615
H  24.7189624713  0.7313788139  7.6964039407
H  25.1383144592  2.0122681168  8.1491513057
O  15.0966284069  20.8457304613  30.9792334542
H  15.8241461411  21.0812555173  31.6263575140
H  20.9505925527  25.4845178354  23.9894132557
O  11.6706153478  35.4732765666  2.5111615562
H  11.1102197797  35.5423870196  1.7026349555
H  11.7851932638  34.5034212673  2.6426001025
O  4.9609220138  2.5073983709  9.6280292529
H  5.8828601325  2.6830576547  9.3400878230
H  4.9154102133  3.1015984209  10.3596010824
O  33.2737866096  7.5421262388  1.7819550633
H  32.9453528713  6.7006969641  2.1358541904
H  32.9708010178  8.1858599316  2.4491810627
O  25.3553658820  5.8681619288  14.0382950349
H  3.8701117436  34.0075034743  15.3535806613
H  25.6350890689  5.6531806231  14.9178443118
O  13.9598442033  35.8540874682  33.6780768148
H  13.8309140982  34.9079208544  33.8130071870
H  14.2590643490  35.9521047500  32.7670579458
O  34.6420043804  34.2215683322  14.9218350930
H  34.9463534272  33.6258361370  14.2067198358
H  33.6837234127  34.3054694557  14.7285481546
O  22.9760265299  1.2810545338  23.9444496248
H  22.9867508942  0.4181856787  23.5233550784
H  22.1003275527  1.6008961959  23.7020068275
O  11.4603768907  18.0049107349  33.6095405194
H  12.4241333863  18.1120720656  33.7750660634
H  10.9990883840  18.2578574564  34.4002988774
O  33.3797683214  36.6743584086  16.0210166229
H  32.8396644285  36.2030099845  15.3664679400
H  32.7565796585  0.0623593236  16.3643403238
O  11.8094254602  2.3832434579  1.5986382375
H  12.3674836898  1.6384549195  1.2564645013
H  11.6334882535  2.0787294530  2.5328874388
O  5.0764608799  7.4990823834  13.7592751757
H  5.7866441345  6.9825370549  13.3533088931
H  4.9707469522  8.2454558905  13.1501195248
O  24.4690586180  26.8902945834  15.1797121406
H  23.6522686554  26.3462740067  14.9933128443
H  25.0868538901  26.4111871161  15.7245337709
O  14.6626703247  3.1113115765  17.5451882706
H  14.8011629466  4.0884962436  17.7233400835
H  13.8665257246  2.8518352241  18.1004255196
O  15.6653171924  1.9523375708  2.7583233208
H  15.1129576818  1.4702925859  2.0965722567
H  16.4453670902  1.4193182822  2.8386194991
O  23.8609929842  3.9926903163  12.2246016369
H  23.7473222228  3.0281379933  12.0321971806
H  23.0434330615  4.4087261764  11.9276262501
O  0.4684437454  20.6207453284  10.7141657288
H  36.7866460267  20.8680901630  10.8118212668
H  0.7802981723  20.9543159048  9.8435021229
O  26.8875343274  34.5092181735  1.9655762218
H  27.5397791243  35.0141958563  1.4664345428
H  27.4541427856  33.7712340214  2.2246816756
O  12.3957950057  23.5439755664  0.8446908656
H  13.2057967331  23.1158145504  0.5697875586
H  12.5360269812  24.5063643010  0.7777579750
O  22.1681423055  16.3715392529  36.8025193114
H  21.3752988678  16.8708392697  37.0418501834
H  22.4685619364  16.0853297547  0.4661610754
O  8.7616823485  26.8572759507  8.1788435740
H  7.9687427968  27.3650673263  7.8637718709
H  9.4681807329  27.5230836593  7.9930743968
O  32.9808996629  28.1298638184  23.7907058055
H  33.4802338652  27.9520885717  24.5714059284
H  32.1368139424  28.5582468492  24.0303343039
O  10.6914549436  7.5394068840  2.7898874172
H  10.9072651166  7.1461949479  1.9060590228
H  11.4069225469  8.2154711617  2.8353734176
O  5.9908353844  4.6430465186  25.2238206659
H  5.9120277481  4.4472892329  24.2796178397
H  6.9325359567  4.8633950905  25.4030044827
O  14.9522245916  32.5946154854  2.1627475422
H  15.1643754451  33.4016882961  2.6474164702
H  15.3065188334  31.8420128299  2.6967085333
O  12.4447569429  34.5353945162  12.3694710190
H  12.3601592518  34.5107757892  11.3860269094
H  12.2369278208  35.5029837410  12.6037466629
O  14.7115536763  2.6135747715  34.6667528224
H  15.1452986154  2.1809512210  33.8813125993
H  14.4890658930  3.5391301599  34.2996235318
O  15.8276795212  0.3374233821  21.6305207963
H  15.9939273803  37.2418804784  22.5287158505
H  16.6249726983  0.1185412531  21.1209062957
O  19.7443957246  31.6585980664  5.2243204526
H  19.2376566682  32.2023151302  4.6457310721
H  20.6236097891  31.6345204849  4.8050520884
O  29.7697200224  37.1618602619  13.3181719738
H  20.4617130412  24.6627738797  7.7515267872
O  14.8099683325  13.0196492432  3.3829419395
H  14.5501440038  13.1127629844  4.2895466508
H  14.0802523553  12.6129042206  2.9317411300
O  19.0630494189  14.3582034318  31.6060060834
H  18.6566486489  13.4915435551  31.5111035333
H  19.5151603777  14.3029704417  32.4822413488
O  36.8214659753  37.2558994002  17.1971836315
H  14.2656762095  11.1151504602  23.1937385504
H  15.4382116072  10.1562631257  22.7652593331
O  34.5601531811  4.5211521771  34.5168188725
H  35.3316179209  5.1204159143  34.5224243668
H  0.4250742490  8.8165282440  2.5135032403
O  11.8382713497  11.4371250814  15.2430608053
H  12.2791730058  12.0093805773  15.9230828138
H  12.5130036002  11.5509185357  14.5208293659
O  14.3602916252  7.7255752887  5.3979217088
H  14.3393499056  7.6751432666  6.4157107894
H  22.9707580873  33.0083610874  23.8961609162
O  24.5579445267  26.0071980522  11.6500050331
H  25.2638702197  26.6216497454  12.0231248810
H  24.3928837060  25.4027214387  12.3876111439
O  26.1691965927  8.0419702124  16.9072094903
H  25.6165088510  8.4770347108  16.2169319064
H  26.5766452617  8.8026059651  17.4235920346
O  1.2869213700  13.3527626798  8.6047482725
H  2.1045583729  13.8722855344  8.7924929345
H  10.1956032384  0.7841493894  15.7753293566
O  21.4143680306  33.7574889035  26.9805163705
H  21.4845869917  34.6901884050  27.0640873747
H  20.4943478363  33.4956577385  27.2957559087
O  13.5462107775  5.0960143894  4.4332741830
H  12.5797880253  5.1481337086  4.4374168600
H  13.8033327742  5.9866065487  4.7312101504
O  6.7160010463  22.1493127689  2.7161519136
H  7.3401666766  22.7400691247  3.1863899774
H  5.7675102110  22.3239681077  2.9273547708
O  12.0156684395  17.9511494435  12.0155728596
H  35.6434791437  24.8743852375  12.7272888296
H  12.5938473788  18.2307796020  12.7713801512
O  34.9852846824  4.6753757711  26.2393287101
H  35.6954204183  4.8683015869  25.5429867587
H  34.9897387124  5.4505418936  26.8797790654
O  12.1599468619  8.6999132498  14.8882092888
H  11.8643264069  9.4886151312  15.3120888296
H  12.1936723563  8.9031210077  13.9555911863
O  14.7470321260  30.6242971737  10.7080712345
H  15.6871715319  30.5891090391  10.3548780147
H  14.4195942197  31.5015096984  10.8301009593
O  9.4700226452  32.0680696208  13.7988773824
H  9.8813444991  31.5465882500  13.1237268448
H  10.0562382635  32.2232561039  14.5575597856
O  18.9817213942  29.1032949412  5.1097386085
H  19.3096812530  30.0079176966  5.0050260079
O  16.9809692162  24.1072854106  21.9203622680
H  17.2693614996  23.8885745084  22.7803669436
H  17.6824648974  24.5883380399  21.4326692961
O  15.8091590522  26.2715735599  28.7540079040
H  15.8636549319  25.5312341257  29.3471536615
H  15.6734015560  27.0240556448  29.3750954778
O  22.6478886552  28.5272971434  16.9265893182
H  23.2608885705  28.1040161767  16.2885880292
H  21.8730669009  28.9489226860  16.5042525572
O  4.5617819129  30.1355388708  21.4748050575
H  3.8814666021  30.5543228845  22.0541183210
O  15.6383370995  28.4983133376  4.8480613739
H  15.8958083270  29.1907322426  4.2061399796
H  15.4978919320  27.6568723263  4.4838343203
O  12.9510895960  28.3241203593  10.1912610771
H  12.2530787953  28.3373054138  10.8513276581
H  13.4974621835  29.1176849896  10.2853503201
O  30.1520850566  34.1869234011  25.0635485922
H  29.5511449379  33.4123030795  25.0176605294
H  30.8804932239  33.9919218318  25.6982281430
O  23.0842270429  5.8106028729  19.4889879815
H  22.5053192638  5.5193624236  20.2314439503
H  13.8747807340  16.2263067967  2.9924998237
O  23.5336887555  29.5495162595  29.4862166313
H  23.2062799553  30.4518547760  29.2352429801
H  23.2498535877  28.9086519927  28.7795304298
O  24.1499246280  36.0645044097  28.3467496008
H  23.4097457614  36.0563298034  27.7446382085
H  26.4496914236  24.7323981882  35.7380974566
O  20.6934232371  30.5392578371  20.7290497711
H  20.4801186478  31.2464742046  20.0979575984
H  19.8376119389  30.1171185641  21.0381551174
O  13.3536133053  26.5534465318  20.1465706292
H  21.9441819218  32.8882800195  25.6645502278
H  12.6021308976  26.4419422907  20.6942669217
O  15.4906336218  17.5800528460  31.6919244533
H  16.4178197611  17.4599116286  31.8502929749
H  15.4893335922  18.0034752774  30.8108564233
O  31.1770816659  12.3169051363  20.1086383084
H  31.0555462489  11.6011691578  20.8272508809
H  30.4097130746  12.2024803438  19.5042297309
O  32.5765754401  1.5304284552  6.6809319748
H  33.5204547764  1.6310865338  6.7991178600
H  32.2325607257  1.7921334945  7.5535013278
O  9.0654370494  11.4927716767  7.1819796746
H  8.8717842116  11.1330971200  8.0432946144
H  24.7584384343  34.3746662404  35.5206272393
O  17.8771813170  33.4067264250  37.0801105619
H  16.8739857450  33.5966455377  37.0790919388
H  18.0740545048  32.7613659900  36.3952042939
O  18.9391897459  1.3458122714  22.0764226969
H  18.9109278107  1.0092093395  21.1276999989
H  19.0446485243  0.5569633503  22.6948902429
O  30.5396445357  20.6696346178  28.8864584825
H  30.6036030296  21.5909047490  29.2376526933
H  29.5199797410  20.5109756390  28.9449504253
O  23.4186472859  31.4591576674  21.2868904342
H  24.3912835378  22.9817911276  17.0035704319
H  22.4821259199  31.1478039590  21.0973982829
O  18.3812439881  31.4838367574  16.5224060645
H  17.8763354043  31.8324567823  15.8462408603
H  17.9432820604  30.6441954334  16.7218724995
O  32.6241758291  36.1348078727  5.7327586818
H  32.3237514805  37.0574898022  5.7909617068
H  32.4660898423  35.6833298759  4.8235924096
O  36.7254361334  37.0604674067  28.8470241229
H  0.1689349728  0.3529413439  28.4912065169
H  36.4731649372  36.4025026869  28.1757057543
O  26.3578416844  25.4384578026  17.1303127619
H  26.2052269067  25.6763394734  18.0314843526
H  25.8248927555  24.6368299552  16.8444768401
O  13.5356875330  29.4330217613  6.9986577963
H  13.7805548294  28.9165918747  6.2392692147
H  13.3519081791  30.3472807953  6.7870246638
O  20.3981120991  29.7285191737  15.9857267568
H  19.8522440564  30.4746493579  16.3488596407
H  20.7401797814  29.9324211231  15.0991013207
O  19.6781409947  30.1510687330  25.9565494743
H  18.7407538836  29.8802549345  25.8765986039
H  19.9576952235  29.5678181312  26.6776369725
O  8.5639764800  3.4017198722  5.6027764944
H  8.6015085648  2.4060546486  5.4035513851
H  7.7462445452  3.7927737160  5.1832893303
O  20.1014294948  32.7340998992  18.8907331907
H  19.3963627116  33.3978557373  19.2167305364
H  19.6242190890  32.3119078054  18.1847422439
O  5.0160783986  0.0507625399  13.2696925656
H  5.2148462402  36.8481984838  14.1201318172
H  5.8537076447  37.0945440647  12.7839891557
O  9.8159015746  26.5953182855  18.3882496275
H  8.9340138425  27.0299388861  18.3208600717
H  9.9920067292  26.1651193175  17.4931669244
O  34.2211258470  28.3802743377  5.9112556878
H  34.6625960538  27.6516734784  6.3846831036
H  33.4146096544  28.4368207378  6.4253383684
O  24.1123189672  11.4004092753  13.2386033467
H  23.2017027256  11.3818021571  13.3559484494
H  24.2064356893  11.0923155757  12.3043858641
O  10.6195277252  21.2882191581  14.5782932655
H  10.6760197546  21.5786249578  13.6378530676
H  11.5259140857  21.4877372674  14.8355575581
O  20.4632617962  34.7707082383  16.2922208810
H  20.9051174461  35.3684233316  16.9314866950
H  21.1516708828  34.5531338566  15.6309774342
O  18.0389594098  34.6958552381  19.8173970834
H  17.1665785064  34.5640994446  19.3604553042
H  18.2414054126  35.7049582624  19.7605631146
O  20.3174323375  37.1415427086  11.1956814093
H  19.7075050051  36.7221124291  11.7996474042
H  19.8405400166  0.5903837429  10.6558028062
O  27.5864037685  30.7298514690  0.4184427347
H  28.4226261101  30.6139198008  37.1437919778
H  27.6000679017  29.8183165775  0.7676245587
O  15.5719823381  33.6680738810  18.9995107620
H  15.4447064238  32.7179588029  19.1755223143
H  14.7466198566  34.1619526745  19.1451995058
O  15.3311237641  28.4228098438  35.6938047355
H  15.0300667694  28.8097033284  36.5422598470
H  16.2963747331  28.5363663874  35.7792899727
O  16.8932766305  24.9102650352  16.3305848742
H  17.3500069033  25.0004751446  15.4941935445
H  17.6758115041  24.9628165317  16.9624243589
O  34.3363336842  20.7387881710  25.3360039421
H  35.2289262450  20.9408793495  25.1068058218
H  34.0229250610  21.3438894419  26.0301214490
O  4.8246083716  16.8070275488  36.6773966791
H  5.1580561141  15.8887717048  36.7710122145
H  3.9135287841  16.8511638507  37.1059757180
O  5.7186987959  13.6738030974  15.8096009336
H  4.8682525165  13.1789109727  15.9754551687
H  5.7535945274  13.5624879970  14.8802501579
O  2.0887161088  1.0514518356  25.4985739902
H  21.4667548004  28.8000714091  31.5907448442
O  11.8774729833  37.2411827240  12.8120474877
H  12.3786949837  0.1126718581  13.6098739718
H  12.5689280073  0.1600565570  12.0971208256
O  32.3045010395  24.4525275586  32.3608637627
H  32.6172142073  23.8852869634  33.1412586810
H  31.6503866476  25.0844983042  32.7202462600
O  21.0711290254  32.6810911606  34.2545010745
H  17.9274025087  19.5064473050  5.4022154612
H  16.8223752698  18.6918511281  6.1818799020
O  32.1462827475  31.3610133324  7.4664299187
H  32.2152892815  30.7923342643  6.6741488368
H  34.6131128512  4.0892742771  33.6729490569
O  34.4638052096  2.7271763807  32.0695823268
H  34.3022407736  2.2051410728  31.2043381930
H  35.4094410874  2.5364290992  32.1953900968
O  2.7186538674  15.5552902693  28.1715321674
H  1.9273475714  15.1425739834  27.6820922427
H  24.9068142337  4.2829890078  28.5483493159
O  14.6679255353  25.7539259454  13.7660910217
H  14.8368208790  26.3352232194  14.5505960436
H  14.8720388422  26.4069909951  13.0331868216
O  34.4234212960  31.9856925714  1.3542398593
H  35.1955944399  31.8611033697  0.6947949785
H  34.7193327292  32.7564050815  1.8849164664
O  25.4579542657  33.1549186030  11.1241135696
H  26.3016089585  33.2165605989  10.6680300358
H  14.7309500595  35.2975914779  12.6941088315
O  11.2785954479  8.2023002492  21.4553011013
H  10.3132221094  8.1540584147  21.5555420989
H  11.6585498155  8.0827314157  22.2851227766
O  27.9314276056  10.5002532439  5.0813749642
H  27.9525113683  10.1937670641  6.0332099299
H  26.9676593190  10.4044966495  4.9560734056
O  16.3503607926  32.5127622055  32.9154286176
H  16.9982483236  32.3934649628  33.6198563961
H  16.3959218828  31.7772985585  32.2835031036
O  8.0668799297  19.1967758347  22.4594680488
H  2.4685999616  9.5014481682  1.2423405643
H  7.2577701958  18.8567351746  22.9581886170
O  21.8436276597  33.3342749298  31.6287761759
H  21.5566743137  33.0381225585  32.4679484939
H  21.0787659664  33.6963028434  31.1224942437
O  25.7178187005  27.4468564072  27.5601384037
H  26.4635048561  26.9422145535  27.1269946783
H  25.1895551566  26.6853655889  27.9549830827
O  27.2733851298  35.0528326914  22.1709222370
H  26.7947612018  34.6287952080  22.9473944515
H  26.6945773120  35.4293861747  21.4341827095
O  17.0671975155  9.6654965456  4.4747224326
H  16.8545963501  10.1617020399  5.2738291129
H  18.0121676697  9.5100827533  4.5490599518
O  17.8730575478  4.9431313494  1.7525207409
H  23.7248360088  29.9223598141  17.1992494629
H  17.4554569345  4.6040030179  2.5688866102
O  11.3298272850  3.9085265372  35.8004239457
H  11.8050425458  3.2039538791  36.2206035345
H  10.5462175156  3.3915555533  35.4709173430
O  36.6860089584  34.6349991162  19.0813853220
H  36.5678855247  33.9992363618  19.7972396924
H  35.7782629430  35.0279838514  19.0466146182
O  19.0031908525  25.9736050803  24.5706566113
H  19.3167943385  26.5333743682  25.3131558356
H  18.4930198054  26.6365017522  24.0571808790
H  28.0234081753  20.1282356392  37.0658342534
O  19.1018707971  10.9270893235  20.9131950044
H  18.3657413813  11.3687412970  20.3890464458
H  19.1683468634  10.0431007219  20.5729251701
O  22.0758985230  25.7522212104  14.6558681794
H  21.9767439985  26.0273686207  13.7019801391
H  21.2853745781  26.1368273880  15.1453928567
O  11.5267937481  34.0088705268  24.3314898136
H  11.8632849281  34.9068629082  24.0927798322
H  10.9277998618  33.6448913562  23.6185540113
O  18.0034875291  19.2544774917  22.0184279735
H  18.5594598665  19.4917513679  22.7900822000
H  26.9157725261  24.9756621420  31.9881664889
O  18.0359285377  35.0578874934  3.9660513904
H  18.3108039010  34.3384844872  3.4674386465
H  17.1647837704  34.9010567603  4.3208884237
O  27.7928023033  23.7150363919  0.0047441491
H  28.5627968120  24.0453451796  36.7887683504
H  24.8104995273  35.4347859057  27.9767811916
O  15.2417165499  1.5884020611  26.0122182773
H  15.8209735628  1.7972533366  25.2390036004
H  15.4934601244  2.2556354195  26.7004875965
O  22.0504246041  32.2810187826  24.9188858560
H  33.1929552740  35.4177921764  30.4499863831
H  22.3739857718  31.4566166077  25.3510683370
O  18.0745701244  17.1155750668  18.1268885079
H  18.5052616120  16.9642215489  19.0329537343
H  18.6520077807  16.7553627321  17.4201917215
O  23.8168008244  13.0562163621  7.2547839473
H  23.8388262096  13.0552056643  6.2865021279
H  24.6363167919  12.5286371504  7.4994222070
O  14.7105346443  27.3573411613  22.2111686669
H  14.1087312529  27.3758888918  22.9459792864
H  14.2628001222  26.7030205569  21.6389642443
O  12.3204609718  15.1697315463  23.8210719158
H  12.9737705242  15.1428635344  23.0905612821
H  20.7517901055  21.0464197024  29.5536093817
O  15.8878605504  36.0986063834  8.5854721872
H  16.5785846350  35.5931178918  8.1263798882
H  15.7334611270  36.9061586868  8.0273290738
O  24.4277253669  35.0998418999  18.1308154059
H  23.8896140536  34.3045232559  18.2550955727
H  24.1641105073  35.5295413958  17.3126350473
O  12.5914226222  24.1647278118  9.4221751008
H  11.9617227514  23.6784691728  8.8721417045
H  13.3405078191  23.5476199382  9.4201762202
O  10.9195268463  18.5485428901  6.0010465210
H  20.6921205041  19.8384093612  23.9937838062
H  11.3437581087  19.2549989295  5.5371786972
O  4.7378867776  16.0529631123  19.7903174020
H  3.9351495313  15.5290075896  19.7074981771
H  5.3712720051  15.7081272026  20.3975736298
O  22.4852070443  5.9662616104  30.1311189860
H  22.6498219465  6.1100990152  31.1017921361
H  23.3040483358  5.4551215521  29.8059456681
O  20.5375575885  17.8689252624  6.7878288185
H  21.3596156640  17.4781952757  7.2137235968
H  19.6923418413  17.4194250882  6.9834547901
O  24.0281890337  24.7510968911  33.4275043520
H  24.6894960045  24.8876345434  34.1643733765
H  23.3616326096  24.1555851621  33.8241457086
O  35.4884076238  29.9883621278  31.1383500117
H  36.0496542242  29.2262581618  31.3629959641
H  36.2523188697  30.5924627765  30.9600468884
O  11.0960182493  25.4261228492  26.6821094740
H  11.1863680013  24.7227781995  26.0676844462
H  10.7875471136  25.0459267444  27.5807872983
O  16.6816735173  2.1398984063  23.9379528835
H  16.5199105177  3.1204903191  23.9034457090
H  17.2878450816  1.9551126661  23.2106465854
O  35.2738574936  26.1859595171  34.2144983401
H  34.7057644518  25.6056565870  34.8268540110
H  34.8507918622  27.0663663305  34.2538314784
O  37.1327822860  29.3333485430  23.2883195568
H  0.2292725019  28.5983703636  23.8101295626
H  36.6782656996  29.9570341577  23.9578495326
O  17.7406944057  19.7708447550  1.5750935453
H  17.4745576721  19.8135250973  0.6234176779
H  16.9352118541  19.3721217741  1.9316511441
O  12.7833944888  27.3945477840  24.2580861430
H  13.1179348624  27.2669845681  25.1514340424
H  12.2796377787  28.2122991526  24.3109414098
O  27.7947997458  18.2564356718  35.9733163334
H  27.6714046723  17.2780485006  36.2057553464
H  28.7842136384  18.2496730404  35.9547706103
O  29.4286265721  23.0786230426  6.0030274760
H  29.9313774328  23.1661541136  5.1517343945
H  28.4649871660  23.1430151300  5.7004707813
O  34.1221510111  29.8461141514  3.3358278561
H  35.0654495999  29.7996452610  3.5546913377
H  34.0667445504  30.5176269343  2.6743659856
O  7.3451142030  26.8782310191  24.0826496776
H  7.4563385596  27.0014635084  23.1208713518
H  8.1632425549  27.2032974572  24.5508144857
O  21.8118834799  24.3075574788  3.2888491797
H  21.5577924775  24.4944340512  2.3807302773
H  22.4919402454  23.6901756697  3.1052475247
O  22.2393825295  24.4812883954  6.8402062985
H  23.0734011352  24.8845530728  7.1691870527
H  22.5591028826  23.7998949579  6.1622038709
O  9.1500711248  5.4976908585  31.8133002108
H  9.2332433189  4.4923150218  31.9158243900
H  8.4173888888  5.4283436791  31.1809607658
O  22.0557131860  21.9985258310  8.6341673039
H  21.3411883213  22.3702779554  8.0649325105
H  22.9406576606  22.1335835075  8.1491810106
O  28.5197131522  32.3255462252  2.5635473621
H  28.3615234109  31.5585139908  1.9450584184
H  29.4770388050  32.4070706262  2.7727590872
O  20.0043192125  0.3293055147  1.0547822006
H  19.6522722940  36.8770812760  0.4431670412
H  20.1342241765  1.0201867341  0.4221366263
O  10.5772971813  18.1586654808  21.1628528767
H  9.6403413360  18.5226015446  21.2821494167
H  11.0777231942  18.6599248360  21.8419816228
O  7.2398275988  13.8553291535  20.3240379737
H  7.8829624765  13.7021894769  19.5788043540
H  7.9005327121  14.2887462060  20.9351572853
O  27.6500765581  5.9257991370  30.3949548777
H  26.9193564694  5.6383798107  29.7860545810
H  27.1776588727  6.3474211038  31.1766048683
O  29.6812755927  31.9262356024  32.0995601265
H  22.8890545295  28.8834692946  30.8927380289
H  19.2015833921  24.5783350162  8.6454881847
O  3.5214905552  8.8579046404  30.8424204602
H  3.8927731757  8.2792299449  31.5134041221
H  3.7189084731  9.7827820429  31.0387845355
O  20.2768020192  28.7453213134  2.6727945405
H  19.6660864064  29.0555093343  1.9721113988
H  20.9595682002  29.3559355538  2.8787318740
O  17.1542177373  9.3006395168  33.4903875085
H  18.7451715501  5.3326049346  9.2662632739
H  17.6412438116  5.9119448415  9.9242385322
O  22.8498464164  22.2003738700  20.4814747599
H  23.0272974087  23.0507183969  20.1051593065
H  22.9431348861  16.5170384304  12.8401312821
O  20.0182840516  18.0616925482  37.2159496100
H  19.1184540522  17.7030305674  0.2431327195
H  19.8811113458  18.3955517069  36.2908290737
O  7.5672878560  12.0526286239  4.0905196044
H  6.7078177590  11.5333768695  4.0781330620
H  19.5959945257  8.0948684070  9.8378370522
O  35.6853834327  30.7273579666  6.8125770155
H  35.1970695543  29.9402234468  6.5653711619
H  35.8843357416  31.1778198576  5.9514086912
O  0.0982300776  6.5489018270  0.7732703541
H  0.7792944314  6.1304502109  0.2029820755
H  0.0017957993  7.5119998760  0.5502751646
O  9.0420186213  18.9643800084  9.6402398974
H  8.8364154022  19.1974081313  8.7224283052
H  28.7374727499  11.7967266219  18.2756675333
O  22.8928780816  0.8978033391  11.4376493403
H  22.0024437918  0.6433064737  11.3551751381
H  22.9807107330  1.1301151153  12.4390145529
O  3.6897283336  4.3706184636  26.5224797905
H  4.5456055372  4.5263419586  26.1001175249
H  3.3844957117  5.0927220997  27.0760372789
O  6.4853782689  33.5596544049  6.5078644316
H  6.8479478927  34.4754545886  6.5777027452
H  7.1138094636  32.9537722696  6.9886846956
O  35.9068090282  32.2953820672  20.7717422695
H  7.1465666716  18.9974477528  4.1716321098
H  36.2749970054  31.6171595905  20.1981846072
O  33.3289411305  17.3003226041  7.5462315665
H  34.1108303695  17.4528489230  8.0887839080
H  33.1401716392  18.1650490992  7.1233686744
O  29.4358444138  1.4877264237  30.0712666425
H  29.8333388706  1.0648595472  30.8544747825
H  29.1228047860  2.3174112009  30.4059865144
O  24.9997150188  10.1319614134  10.7823482544
H  25.6629932397  10.0283155898  11.4894921137
H  24.8411341997  9.1949076305  10.4732163431
O  10.2667067076  7.8966005793  27.1097843266
H  10.7531912627  7.0659101562  27.0102900835
H  10.7398567375  8.5746411003  26.5640107935
O  30.9324528799  28.0397185628  6.2524182711
H  0.8610946911  22.7378394322  13.5341562396
H  30.3334400312  28.7558023683  6.4921376417
O  34.9531941245  24.5917114262  19.1244560788
H  34.1130564695  24.0416859060  19.1025680642
H  35.0240210239  24.8039992431  20.0469960433
O  6.9788290134  9.1160369543  9.3801939512
H  6.7240281990  8.2017335965  9.1706638448
H  6.3086194913  9.4746862990  10.0134169342
O  32.6060849435  16.0158872835  1.6785436376
H  33.0714020314  16.6548360510  1.1394964757
H  31.9285908383  15.7863844097  0.9748257743
O  16.6739115743  7.5788631835  7.3686793199
H  17.0723001859  8.3203157750  6.8722704217
H  27.0694638090  27.8647953745  9.2231606026
O  24.7936410511  33.7278133769  8.0880337604
H  25.6302149326  33.2495000006  7.7915393828
H  24.3729130219  33.0498154662  8.6347057964
O  36.7378507150  11.2963959016  32.0110310272
H  35.9695375285  10.6872414570  32.1136358590
H  36.4596279114  12.2372150241  32.1580367061
O  6.1094825510  20.9341244278  32.8140702211
H  6.5757796203  20.0471438266  32.8009502775
H  5.1528283587  20.7480379462  32.6608323692
O  30.9241517298  21.4150352405  14.9478713653
H  31.4594192314  20.9998917870  14.2417343994
H  0.7760638297  35.3536908592  10.0797007713
O  25.9322025608  1.5811941693  14.9202020860
H  26.2871873042  2.2562297681  14.3141267319
H  26.4544406255  0.8300124002  14.7246926124
O  0.7338858332  35.3418701181  14.9828585154
H  1.2628957138  35.4014567366  15.8074959852
H  3.4250906566  1.4786717752  4.2115504648
O  11.7148559731  32.5571937136  20.3658147405
H  12.4968633756  33.0967222975  20.7229111305
H  11.6209445028  32.7004417754  19.3599748570
O  28.2123239545  18.0463129507  13.5216849257
H  29.7513970141  1.1805592463  21.9935183218
H  28.3775403530  17.7264374657  14.4202460662
O  31.3556721101  18.4143249491  11.1232134538
H  31.0282149505  17.7524100084  11.6769503497
H  32.2347821836  18.1324751206  10.9199982631
O  25.6892501175  17.9749656933  11.6798998179
H  25.3771736736  18.8712280902  11.6222956206
H  26.3632487145  17.9620712965  12.3916931029
O  30.7565500793  5.0045865068  29.7696061013
H  31.2919859252  4.3104568758  30.1815616885
H  29.8401934338  4.8273571578  29.7638174064
O  5.2723541936  6.6875292891  34.9421704471
H  4.4849394191  6.9153538863  35.4114062570
H  17.5542793995  26.4104889074  19.3909687208
O  16.1076551544  18.6244289700  16.4431458033
H  16.3828473394  19.4368499000  15.9904093302
H  16.8891778738  18.3673663895  16.8779524568
O  27.4598585618  9.4462564733  18.7881834702
H  28.4462938386  9.2913725670  18.6367135985
H  27.5602065736  10.1205103998  19.5693228796
O  34.6262362651  6.1503840891  18.9176932990
H  35.1706864579  5.7019455924  18.2888049920
H  35.2179482424  6.7857797654  19.3116071414
O  20.3763459700  7.6989584929  7.3688010558
H  27.3496686732  6.4328998165  24.8997054080
H  21.2963204771  7.5634271106  7.8125741897
O  34.8364188315  36.8880863905  8.6509446739
H  34.8605740059  0.3315007865  9.3107424435
H  33.9707170877  36.9813803419  8.2600586501
O  2.0170396124  10.1316213970  5.1190390325
H  2.7241177083  9.5370512382  5.3551352323
H  1.8262060096  9.7492588516  4.2230864520
O  36.8153242581  17.6180539731  12.0267787050
H  37.2424541444  18.3181890258  12.5777960748
H  37.1912437734  17.5978711583  11.1170153165
O  34.0919024785  4.1231916925  21.2760665208
H  34.3354702144  4.5881045920  22.0709168072
H  34.2441181637  4.7580113365  20.5635781883
O  33.1978578812  16.7263160254  34.2692913476
H  32.9258095990  17.4511288959  33.6702063410
H  33.9912121182  17.1831340945  34.7242437426
O  23.4303407918  27.4227209152  36.8709685538
H  24.3917014163  27.4886128766  36.7529628972
H  23.2396449749  27.4747033005  35.8972775831
O  22.6315649360  17.8224926307  26.4503648290
H  22.9057335091  17.7431695001  25.5358196773
H  21.8393668889  18.3172490807  26.4632443351
O  34.0960665081  18.2699673867  11.8509496788
H  35.0255673406  18.1002887280  12.2236497423
H  33.6866387032  18.5054704064  12.7070000142
O  27.6373694191  0.8166813699  6.9703849127
H  27.8644367826  0.8364350893  5.9666490055
H  26.6667714284  1.0757255922  7.0770385191
O  8.1371514729  14.0648188731  8.4851505494
H  8.1669908615  14.8786803897  8.9522984707
H  9.0531821072  13.7393206713  8.5677331928
O  15.1876354725  0.4887423602  13.6864440701
H  16.0218906076  0.3578617794  14.2583225569
H  15.5715995147  0.3831256219  12.8138738820
O  25.7091561239  22.0585323032  9.2341332890
H  25.7524645575  23.0145291093  9.1672234647
H  24.8977300691  21.7916294112  9.6983676354
O  26.0730347929  9.1711381417  1.4403901333
H  26.3029523529  9.3725742961  0.5144198544
H  26.5484272876  9.7488350721  2.0332817117
O  33.5149327142  31.2251520854  22.8779215513
H  33.4698088069  30.2567858844  23.1515490712
H  32.5935633045  31.3758419595  22.5884277381
O  33.9613378058  12.6422783767  34.7276837394
H  33.1720267012  13.1201438639  34.3799705108
H  34.5768753333  13.0081260134  34.0872322601
O  27.5654591839  28.2042751541  1.3745632746
H  26.8736094206  28.1864756159  2.1201947992
H  27.2463191895  27.6401736844  0.6816387613
O  7.3297910439  16.3279987479  2.4448913356
H  7.4082436253  15.4224228475  2.2708109608
H  6.4417879932  16.5724981802  2.7417100776
O  23.2045618771  36.3421936438  4.4408048724
H  22.6802243335  37.1181414525  4.7426581526
H  22.9699172853  36.1719060628  3.5286222381
O  9.8048428666  2.4019966984  9.4839125405
H  10.3796747052  2.2459814088  8.7084178836
H  9.7456394098  1.5891420437  10.0052824817
O  6.9657845699  17.2496356985  27.3746201157
H  7.0800271324  16.7347627172  28.2095927324
H  7.8661492504  17.5593832129  27.1425287888
O  31.9134268859  22.7009307847  11.1478931030
H  32.1547817001  22.6722732297  10.1786554657
H  31.0146882819  23.1441655971  11.1095762967
O  9.5077097944  2.6940679618  13.6182569320
H  10.4446785166  3.0162002901  13.7142631467
H  8.8571471080  3.4581228292  13.5750998442
O  28.1456801204  24.9273331816  13.4229742739
H  28.9898508602  24.7399000148  13.8405596306
H  28.0040410667  25.8683753653  13.2681573834
O  11.0201921697  10.2905182357  5.8782141512
H  10.2391864047  10.7308426198  6.3671894686
H  10.8385026499  9.3448896617  5.9744887244
O  11.8088289877  17.2946803487  8.5385282817
H  32.4754945016  10.5106861397  10.3317030397
H  34.8778888122  10.7975411773  8.4172804862
O  5.3312448849  16.6191243088  8.2863222387
H  4.5578143952  16.1574551766  8.5749452303
H  5.9717807545  16.4204088128  8.9982264763
O  11.3400904483  31.4441531663  11.1121776860
H  11.7906538994  30.9467010948  11.8159135072
H  11.8430032247  32.2083573186  11.0227855301
O  9.2515628490  24.9249351640  20.3629220483
H  7.9517998277  37.1580922247  11.5831618570
H  6.5344901570  36.7965452917  10.6782913521
O  34.3873273601  8.2242106695  32.0689114960
H  33.6009283546  7.8480060735  31.6403210241
H  22.2537956583  22.4329023097  21.2238408592
O  17.1997882533  12.0652562151  19.1068100615
H  17.3107251660  13.0174070277  18.9028894741
H  16.3109522135  11.9736172978  19.4779632995
O  2.7342946123  6.0477624055  10.9350318324
H  2.8421172163  7.0351100958  10.9202766607
H  4.9202650043  21.7030393917  23.4541553211
O  4.8285255244  3.1063406944  1.5745871972
H  4.4911191281  2.7080844022  2.4337146615
H  4.2452016716  2.6858917625  0.9057737569
O  32.6870757288  5.8993722349  10.0015496004
H  33.3476023215  6.3784406741  10.5842631498
H  32.1060543956  6.6105859085  9.7679025746
O  29.8234371615  16.2252664981  12.2275197372
H  29.6547441213  16.0062197361  11.2698578507
H  4.5315826931  30.5061981324  25.0883182912
O  16.9448369655  29.0654659866  16.7628208285
H  16.8708603805  28.6232668464  15.9304015914
H  17.1559272259  28.4529064116  17.4950791849
O  21.9737045168  18.3003040771  31.1294923811
H  21.6048270572  17.7879354818  30.4134641464
H  22.9550230645  18.0731125728  31.2220220197
O  0.0789377636  0.1505104387  5.5683792549
H  0.3251295782  37.1542965325  4.6721079012
H  36.5150289159  36.9694071006  5.8461387427
O  30.4751004748  3.4694199891  0.4493673960
H  35.2161246170  8.7151522581  8.4681093330
H  29.6887040201  4.0108930143  0.6025108306
O  5.4225288041  2.7810661363  22.5636115614
H  6.3088782834  2.3169048402  22.4337371275
H  5.5356108880  3.7006303934  22.3670242167
O  4.8776125797  12.9050049047  29.1838957039
H  5.2688660466  13.7401317278  29.4376624137
H  5.2136716347  12.4881444307  28.3237595678
O  22.7599463708  34.5258610743  14.0358917506
H  22.9525117354  35.1687033949  14.7138879647
H  23.2916162011  33.7964607769  14.2984011794
O  8.8646561426  36.4694858643  21.2585647993
H  9.0053780086  35.5439355724  21.5219135435
H  8.9427815627  36.3537623134  20.3191570620
O  30.9056896017  23.4161656034  26.7296028751
H  30.0629026321  23.0499942037  27.1286783039
O  32.5097682097  34.4026889177  10.4206500746
H  33.0285392826  33.7935234310  10.9991805714
H  32.5059697803  33.9434678167  9.5458030216
O  6.7627984704  26.9056007089  21.1922171670
H  5.8017018624  27.1292551865  21.1155631772
H  7.1016611692  27.2329249507  20.3286762121
O  30.3537774396  29.6346268364  36.9894584560
H  30.8506784564  30.4204490018  0.0626937878
H  30.4837548826  28.9760580000  0.4721292848
O  26.7760641819  28.7323671157  8.9196000865
H  27.3637037930  28.8544870976  8.1979402652
H  20.2607532122  2.5412690349  22.8609349389
O  25.8534726118  15.8574640668  17.4799598408
H  26.4168907748  16.5194613358  16.9611205560
H  26.4970357640  15.2344279874  17.8978225258
O  33.4298068565  1.6860641966  27.2077319670
H  32.7780271252  1.0938781319  27.6545047635
H  33.9138192630  1.9097921815  28.0295113698
O  20.4896807146  16.5788424864  24.0801660083
H  21.2508422459  16.7980801651  24.6230080577
H  19.9882933337  17.4498602746  24.0306431356
O  26.2589330548  29.5084667972  33.8696014981
H  25.7570450100  30.3730817698  34.0338202355
H  1.6632699103  5.2024863610  11.7521266617
O  24.3384281109  1.1002060005  0.9920811160
H  23.8832433518  1.7148962449  1.6572062121
H  23.8157269716  0.3205238638  0.9922655369
H  1.3982035696  35.6204952156  14.2690305053
O  32.0766149904  14.8279938387  15.9704956450
H  31.0852283989  14.8821450184  16.1218185342
H  32.5558999116  15.6229755672  16.2156778653
O  29.9797027711  1.6000793706  21.0801637988
H  6.6969522592  22.7827651029  23.0021668749
H  30.1331441080  0.8350343228  20.5033936724
O  18.8823197768  11.0386628175  12.9435276510
H  18.0466710743  11.1715084753  13.3797935226
H  18.6668180159  10.9570799503  11.9736112994
O  33.9955292229  35.5589948887  19.0797687217
H  33.3177892613  35.2531374041  19.7323276558
H  0.8058965462  2.8917170399  15.2099359103
O  21.9599516856  15.4141840695  9.8269873597
H  21.3784864326  15.4559409001  10.6431768918
H  22.8299971115  15.3133656404  10.2229797416
O  22.0810529681  1.9311474676  27.1251678776
H  23.0325623791  2.1811251408  26.9040412854
H  21.9919460068  1.7674929404  28.0837866050
O  25.8958524726  28.5871587508  30.9296201067
H  25.1633000736  29.0940716332  30.5750048062
H  26.7352052096  29.0018203400  30.6685604831
O  20.6604078667  5.8050961023  36.5483678739
H  30.0285865080  33.8354354273  19.1646818466
H  20.4930657911  6.2370222035  0.1705384262
O  32.1634607213  9.8599424020  3.2104199680
H  32.7132039392  10.4623865809  3.6823056674
H  31.3402103584  9.6307703661  3.6621585811
O  31.9104301260  37.1216261793  25.0139789367
H  30.9868429062  0.0427822067  24.7332383397
H  32.3179887215  36.5767652265  24.3576820515
O  31.7027344901  7.5886356176  16.2544958548
H  32.4358226023  7.4123259074  15.6570624236
H  30.8866849507  7.7609251491  15.7223766914
O  0.2181519260  5.6698611897  14.6616360261
H  0.7638688365  5.2878337692  13.9779173666
H  37.0354504718  4.9451034986  15.2761372175
O  36.1554446335  10.0008608177  11.5631899681
H  35.5594286170  9.2708665209  11.4052657942
H  36.0178729956  10.0557645352  12.5175269425
O  27.1711027004  1.4214025360  23.9716581849
H  26.6863725038  0.9187307617  24.7166130797
H  26.4919515688  1.8830655149  23.4071081403
O  8.5969515683  23.3898728466  15.3286259480
H  8.0964807572  22.8398559278  15.9368340591
H  9.3125121704  22.7764542277  15.0456242814
O  17.7912419228  34.3852291265  22.5585749812
H  18.4356235049  33.6323930849  22.6422144530
H  17.6542450694  34.2924495016  21.5550273701
O  34.7652245170  12.8280754942  10.7249271784
H  34.4251519962  13.6917828717  10.4964732316
H  34.2637111074  12.1671384162  10.2877495569
O  22.2658540858  2.7422596717  31.9315507875
H  21.5701768230  3.3424458477  32.2636411200
H  23.0181769103  3.3512265338  31.9362450741
O  18.4034499964  17.4191639358  14.1527682001
H  18.2079172020  17.3295020899  13.2047572732
H  18.7918463083  18.2771996939  14.2863783625
O  32.1285635318  5.8256645665  24.1153863348
H  31.5922202260  5.4056055670  23.4439030480
H  31.7242301212  6.5156014494  24.6207842522
O  30.8933987358  2.7013736823  35.0607042007
H  30.0602591053  2.4809035864  34.6491786552
H  30.6592178950  2.8091795585  36.0011374649
O  32.6325930657  23.7700958836  21.2041690843
H  32.2618331589  24.4641368655  21.7186834294
H  33.3381033191  23.3357259237  21.7634002962
O  35.9079120605  34.7789266871  32.7440245654
H  35.4449388940  34.5003053482  31.8895954803
H  35.2654621491  35.1500647500  33.3245846644
O  33.9474150189  15.3679390128  29.5431463717
H  34.0770754204  14.3801908145  29.4480450592
H  34.7132859988  15.5554850727  30.0608928366
O  2.4188177857  9.5115581655  22.4099085626
H  2.9934663416  9.0416775445  21.8003690685
H  3.1114022067  10.0138946892  22.8946155909
O  37.2371021825  2.7505674291  20.8633959525
H  0.8485629786  2.5969399216  20.5195651581
H  37.1357146089  3.6893544598  21.1111713908
O  29.3383716766  11.8983018904  25.0222226942
H  30.2702873837  12.1366544783  24.9312973619
H  29.1953224278  11.2490453745  25.6959968354
O  26.9722175983  3.2223095906  13.1099555036
H  27.7492972669  3.6152533003  13.5765612419
H  27.3880201210  2.5824345278  12.4518165147
O  17.1012143604  9.1793174254  14.8976600701
H  16.1632442086  9.0707130544  15.0740070331
H  17.1174490074  10.1203828077  14.5613008399
O  34.3102044304  6.4903799939  22.7771002659
H  33.5789755908  6.1466532768  23.3045588606
H  35.0530263773  6.5474704762  23.3845938566
O  3.2173190068  12.5912357934  15.9943973316
H  3.1240899395  11.7152840070  16.3671074980
H  2.6373245833  12.5594819986  15.2521614778
O  24.6332068005  30.9062079291  37.0500054725
H  25.5718059089  30.8435849788  37.1840692923
H  24.4121324646  30.8238078710  36.1125793752
O  22.3967529841  36.6779028512  20.5727971693
H  22.4127690254  36.4446340893  21.5390899289
H  23.1936513773  36.3596418143  20.1630342202
O  0.0047258082  32.5190541897  33.1549435051
H  36.4537967873  10.6003223498  8.6107632869
H  12.4334237075  4.0338324809  12.5725952028
O  7.4753934202  32.8833481871  18.9970500343
H  6.5940174871  32.4660460819  18.7091091633
H  7.9771941988  32.0693576687  19.2623824682
O  33.2422338625  0.8896959560  21.0137202363
H  32.8554017172  0.0174115047  20.8614580032
H  33.9102070184  0.8692995204  20.2818405682
O  32.4720888545  27.7597661728  8.7089492648
H  4.2675342691  5.5883181941  17.7568174609
H  3.9559248456  7.0421045217  17.5883427623
O  21.9872395376  16.3097459535  12.8466117132
H  21.8724362501  16.2376000502  13.8640845760
H  34.7140583257  8.9516745466  31.5070168295
O  9.8259735658  24.6258413197  28.9466929590
H  9.9224739403  23.6861078134  29.1630937284
H  8.8571728672  24.6371019443  28.8402487800
O  0.6692767756  35.7798838884  21.3933322009
H  1.3621632263  36.4992241950  21.4250869675
H  24.3328569284  2.0109631242  23.0110722368
O  2.9715162691  33.7524470912  30.8816700753
H  2.1482300358  34.2157607682  30.9159620582
H  3.7119690279  34.4047330684  30.8906466234
O  1.6023966369  2.6738500573  17.9360554021
H  2.1388225702  2.2905097283  18.6509775766
H  2.2460924529  3.1958232863  17.4306233797
O  30.3424195250  24.6879897789  3.0028959158
H  29.4281194367  24.5896546943  2.9338182368
H  20.7866418196  13.2481084538  29.1923232841
O  28.0483470808  35.0702668021  5.9612098518
H  28.1273263765  35.7797408155  6.6089529176
H  27.3050334248  35.3366419358  5.3335618533
O  16.5722611977  14.9122735773  18.6550829189
H  16.3037015918  14.4022429197  17.9026917941
H  17.1323870036  15.5858963456  18.3112542774
O  21.5710767249  11.0102225599  14.1487859763
H  21.1775608444  10.4061535359  13.5692464777
H  20.8306262446  11.6559061956  14.2822945951
O  24.5575423609  32.6523325750  32.6997826102
H  8.9084856338  6.8308480903  34.7357131904
H  23.8584438006  32.9161375663  32.0921885172
O  7.5882754127  31.8916331586  8.2501335719
H  8.3615393795  31.9903150154  8.8217642460
H  6.9068693878  32.0599768540  8.9490758727
O  17.2215511627  0.9053936120  15.2871906099
H  17.1370749455  1.2526907148  16.2095683349
H  17.6211282693  0.0078326159  15.2774508399
O  28.1073233814  33.9439146953  34.2378301746
H  28.5040557318  34.7812914965  33.9570660855
H  27.1533124473  34.2073937270  34.3572713242
O  9.4103565396  36.4668246479  28.9292250014
H  8.4227562811  36.4701027321  28.8822095028
H  9.7119952203  35.7060311819  28.3874234696
O  34.2498127394  2.7114806014  17.4781266711
H  27.6570186813  15.2160254828  35.3197486715
H  34.5729612599  1.9298511568  18.0121259237
O  29.9519432726  34.4101519943  22.0828387468
H  30.2522453070  34.3258471130  23.0049383645
H  29.0274820331  34.5989382294  21.9635602624
O  1.4450528734  33.5169322569  0.0218894934
H  2.1351738477  32.8662959880  37.2145282873
H  1.6858917085  34.1774898730  36.5683182648
O  18.8403940488  6.1832181387  5.3371670113
H  18.2027820003  5.5310947979  4.9565291784
H  19.0076616984  6.7651754738  4.6208287682
O  20.8913963048  3.0367197970  23.4094349417
H  20.5411079697  3.0638049216  24.3239027615
H  17.3509479808  7.2556363166  8.0133236065
O  9.3311766703  14.8035118097  11.9083403936
H  10.2812558367  14.7088902417  11.7467281071
H  8.8970596425  13.9106627086  11.8528328949
O  20.9139177660  16.6584546060  29.2573511043
H  21.0505302087  15.7398793560  29.5238126161
H  20.2889292135  16.4808694683  28.4788020731
O  12.0304353696  7.2036704028  33.1075275981
H  11.2499034947  7.4793564973  33.6478783369
H  12.6138999675  8.0311153708  33.0161230163
O  35.9499201570  32.8804870891  16.9115259747
H  36.1943130984  33.5297776864  17.6104193779
H  22.0208860705  3.8948001170  27.8751669617
O  36.0492784709  22.0504178273  20.6807780508
H  35.3759850314  22.2057134285  19.9671943824
H  36.6556783445  22.8477072162  20.5654021153
O  3.6156309001  2.3306634099  3.8825097319
H  3.8131350742  2.8144589036  4.7358853990
O  35.8252216443  11.3816753045  3.2399757327
H  35.6827256193  10.4588439517  3.4926664987
H  35.6881074354  12.0281046692  4.0286098394
O  5.9035794545  23.2236207612  23.3898954399
H  28.8756376608  17.5106004164  12.9611592837
H  6.2729392497  23.9405153150  23.9481190292
O  35.9415416698  16.5402603320  24.5772904966
H  35.0555060244  16.6573897556  24.9457040141
H  35.6987374035  16.4825194258  23.6364016464
O  31.8716934081  7.1284957991  31.5338104488
H  31.7967585950  6.7631421445  32.4401050808
H  31.7820563116  6.3591801585  30.9315691592
O  28.7064553963  36.6327395544  0.3326954913
H  29.2466830251  36.6119509576  36.7758232420
H  28.1879643395  0.1844878638  0.3136051793
O  15.4312707746  30.8907787361  18.5819728445
H  15.9904352142  30.5189521531  17.8634092772
H  25.2838834333  35.7908332275  19.5236497704
O  25.1776908062  10.7112698561  4.6890144824
H  24.8143750617  10.1101073941  3.9955889529
H  24.4150550914  10.6114326679  5.2700114173
O  0.5919295637  17.2679005900  16.0020248666
H  0.9893889334  18.0185472596  16.4916599389
H  1.1680885452  17.1674832223  15.2329867089
O  29.6881862024  8.6452177352  4.2343806802
H  25.8490738325  13.9265250457  2.3811827112
H  29.0891159993  9.3776821784  4.4303527667
O  5.6585401576  11.8680288644  21.0305469584
H  6.4162963447  12.5043666658  20.9577126365
H  5.0085273536  12.2652781677  20.4150331874
O  1.7794532302  9.8899121098  19.1253177078
H  0.9881745677  9.3517235846  19.4183905691
H  1.8087588448  9.7378390436  18.1690581531
O  23.0053453372  6.6672616890  32.7929480922
H  23.9217024786  6.7805542816  32.8949177770
H  22.7746108586  6.5346496762  33.7386062214
O  35.7526722853  13.8370640461  32.7203290993
H  35.4638304315  14.6603146516  32.3112775195
H  36.4004210705  14.1476790256  33.3848724395
O  21.1227760559  14.2747983041  15.0748596647
H  20.7232846987  13.5059780162  15.5292497607
H  22.0935385674  14.3347393613  15.2809603934
O  22.7524537086  32.2064228135  29.1335416505
H  22.4888374526  32.4901221004  30.0169454246
H  22.4522763265  32.8211200472  28.4023556149
O  3.0049431824  12.9943816304  19.2556532463
H  3.2516166265  13.1698152574  18.3796071053
H  2.0475798697  12.9454035285  19.3244330023
O  3.3160061732  28.3644323845  3.4700937250
H  3.9028329318  28.1020077143  4.1537999419
H  3.2495093586  29.3103613899  3.6548051556
O  28.6640128326  3.8570614726  23.7641706275
H  28.0911934417  4.6151926269  23.6790650327
H  28.0403326943  3.0606965693  23.8152414875
O  17.0572193885  5.1742110059  31.6442824012
H  17.5884464986  4.7778569655  30.9295674116
H  16.6084846227  5.9198477476  31.2489380943
O  8.5913647297  4.7700163372  2.3824908680
H  7.7768492013  5.3681136017  2.3800411822
H  9.2464189605  5.2022801183  1.9007631635
O  31.8871000113  29.1629732940  29.9536064372
H  31.1132488538  29.4431347687  30.4942481378
H  32.5100846797  28.6412780562  30.4432415175
O  30.1062410960  34.6148865249  30.0888884270
H  29.9061205520  35.5056275807  30.5056928975
H  29.7705193285  34.6603999221  29.1653911592
O  3.7962798563  5.6476743614  1.7190962187
H  3.7129486711  4.7018988463  1.8726694621
H  3.3009972650  5.9819314425  2.5254744029
O  5.5735624756  11.5038794841  27.0683198223
H  5.7618732989  10.6777237905  27.5454975954
H  4.8065791182  11.3049441440  26.4987325154
O  1.3789279828  32.4145711920  25.0819232394
H  2.2687045038  32.0392771597  25.0786200725
H  1.4052968299  33.1474484163  25.7073925071
O  35.0348665537  26.7193056987  0.8195967239
H  34.6002580516  26.9002226019  1.6826185928
H  35.6011602550  27.4371152871  0.5452740026
O  31.1584888498  24.0690156735  30.0315473255
H  31.6082376579  24.6585300865  29.4371245933
H  31.5882653594  24.1012889525  30.9228944455
O  27.0558438401  1.2186947555  27.9485428431
H  27.7717557823  0.6504833278  28.2995066348
H  26.4006029281  1.2439828615  28.6929816288
O  8.4069007493  13.4876743790  31.4501307763
H  9.1735643121  13.2395481927  30.8511190846
H  8.0055792803  14.3153911409  30.9858865843
O  0.2696587782  13.2730432044  11.0656020924
H  0.6574950649  13.3107268649  10.1789918775
H  36.5988290657  13.1011726973  10.9553399153
O  23.1366467274  2.3252803728  35.5145570775
H  22.1916697753  2.2988032897  35.7938054783
H  23.6917631348  1.8986782694  36.1615297826
O  10.5731653609  2.7179909431  25.4713591175
H  11.2593823175  2.3347701101  24.9592762919
H  11.0417242145  3.3188684707  26.1421649600
O  22.3628471840  12.7078104302  33.9757358801
H  21.7958745427  11.9161358434  33.7200171305
H  22.4399214917  12.6661305929  34.9622999888
O  33.2420237824  10.8438732848  36.6129927020
H  13.3036280597  3.7116827855  13.8715183796
H  32.8444466312  11.1885341213  9.0193023695
O  28.3423972027  20.7961800483  14.0847460256
H  28.6124240273  19.8787957617  14.0529778811
H  27.9698302532  20.9655805466  13.2392780351
O  34.6187277702  33.7055238091  30.5824923471
H  35.0323541907  33.6246572801  29.7034582717
H  34.2349610319  32.7705353261  30.7946523016
O  0.9727973899  14.7452073429  16.9544925304
H  7.3328407547  33.2576669727  15.8769378882
H  7.6565511350  33.6039576225  17.2789942949
O  11.8909444376  24.0600268546  34.7743445461
H  12.0697057518  23.5570571565  33.9622028168
H  15.6296406556  30.2513259235  30.5613281996
O  25.0892283729  12.8324545292  18.8667665749
H  24.5752319264  12.0278440220  19.0707136798
H  24.3375689049  13.4176373844  19.0573822809
O  19.6224128792  8.7139884231  10.5679429966
H  20.3699790544  9.3439386933  10.5095027418
H  2.0428508417  5.9415482559  18.7211952800
O  27.6078189696  24.2166760925  2.7147948810
H  26.8561342504  24.8994254204  2.7793825123
H  27.6273099222  23.9433375326  1.7365079750
O  25.4629322707  12.1569934755  16.2145299720
H  25.4868035199  12.9783792777  15.6211763872
H  25.3824512540  12.4211211476  17.1722671674
O  34.7407978189  16.6749911922  15.7838367623
H  35.1967943991  16.8249382527  16.6476636274
H  13.4768437768  19.0128262021  37.2309378313
O  1.0951849149  27.7555578123  5.1382938032
H  0.2220924621  27.4316207514  5.4641560490
H  0.7646256427  28.1355038221  4.3419062720
O  37.1658493383  24.2602370491  29.6341965036
H  36.3731176248  24.6788935173  29.2948416560
H  36.9850110251  24.0458552714  30.5875568744
O  18.1917700384  22.2369921545  2.6117460201
H  17.8343819334  21.4078560217  2.2357645000
H  17.3383646079  22.7034983800  2.7407622131
O  29.5143542002  7.0512011704  6.4699934334
H  34.5036482365  14.5625403865  36.2865637295
H  29.8923862048  7.6072300797  5.7203660462
O  6.2491935978  18.9286850363  0.3425932913
H  6.2624590371  19.4768133684  36.7664196725
H  5.8583324639  18.0355811584  0.1914216944
O  36.3662179004  30.6581909549  25.6382392543
H  37.2031737055  31.1579701842  25.4955957416
H  35.7106393007  31.3733703783  25.5889007004
O  32.3091868173  20.7066071178  12.8892312802
H  31.8495708275  19.9314144892  12.5598003796
H  32.0995365746  21.3742810808  12.1747045262
O  23.4943828622  10.6675665652  18.8639661105
H  23.7996551367  9.7978130126  19.1250295304
H  23.3614098791  10.5014525875  17.8751740833
O  0.8967895172  22.7454921076  14.4968506452
H  26.8533143498  29.5292087983  11.9811482542
H  1.8413859336  22.4792751614  14.5901251470
O  3.1514880699  21.2215562747  25.9233545094
H  2.6419926170  21.7794336257  25.3781934789
H  3.9361567051  21.6572006522  26.1912959972
O  13.0434951271  10.8023995361  18.3077471076
H  13.5282675850  11.4112046471  18.9056071449
H  12.1795922551  10.7380191687  18.7056411516
O  28.9953915338  11.4322462417  34.2223155638
H  28.1356480823  11.8526879197  34.2383481269
H  29.3262371988  11.8386074418  33.3869038749
O  19.9358748549  22.6726047423  7.0890569300
H  19.8073124027  21.7788456533  7.4765125468
H  28.6903062685  27.4193185853  11.2356483554
O  31.1322570620  13.9450762365  13.4914054850
H  31.4601908786  14.3515210185  14.3366410311
H  32.0120834921  13.7592260081  13.1314753982
O  6.3403932485  36.5899469559  29.1931241523
H  5.5357796880  37.0733395778  28.9425860693
H  6.3494140148  35.7544108813  28.6948212868
O  4.2658705780  13.6463366784  34.9850230245
H  3.5550360960  13.0910140482  35.4500701707
H  3.7689979842  14.4304747317  34.6763783478
O  29.8651405578  7.2070292912  21.0103870002
H  29.9511786554  7.9078324442  20.3225050256
H  8.4847746310  17.2624172106  9.8825830144
O  21.6748164562  8.6252370848  29.2748775760
H  22.2755181201  9.1827589633  28.6968435501
H  21.8867979093  7.7382951789  29.1226955566
O  1.8015170568  24.7684899256  23.0681760337
H  1.8508197639  25.7075495209  23.2235687018
H  24.9229483191  16.4843672780  11.3595183781
O  5.6624627792  15.9379394525  5.6955095302
H  4.8251482900  15.5425867309  5.3953728318
H  5.5212108909  16.2094706679  6.6037712562
O  32.0436774836  11.6848344843  16.0315052228
H  3.0149534692  29.9435811530  13.5685872544
H  32.9959998691  11.8531474225  16.0175920298
O  27.7332450874  18.8756846212  17.8421963652
H  27.8576957801  19.7218947212  17.4075871203
H  28.3678196646  18.8506542374  18.6203769854
O  17.7803575128  10.6609298464  10.4584907385
H  18.1488141631  9.7709876773  10.4059813760
H  16.9448423942  10.5046312178  10.9546511462
O  28.2315931205  27.6268176093  14.6757826673
H  28.2969441471  28.0029499834  15.5541484590
H  28.9975136208  28.0816856069  14.2457597088
O  36.7767135733  6.8318044744  31.7667033658
H  0.1595538501  7.5628831450  31.7146653097
H  25.0824320330  26.4199245385  6.9307626870
O  35.5212786106  27.1054658265  17.5550278772
H  35.2737060827  26.2376865212  17.9892441165
H  35.0993569439  27.7160833362  18.1950281438
O  29.1527696388  26.0150517811  30.0901958264
H  29.2025575006  26.6840359927  30.7919911739
H  29.6980394089  25.2862009376  30.3232433744
O  30.6857973935  5.3066240876  12.8430629478
H  30.3918527982  6.1877168909  12.6340078063
H  31.6549246243  5.3675430724  12.9241004039
O  24.5877757326  14.6365194257  32.0580893215
H  20.0669659089  6.9902481777  6.8093773544
H  23.9133701465  14.6076814671  31.3573665400
O  26.7426678496  14.2923348394  9.1880126746
H  26.3609327707  14.6059781825  8.3362199676
H  27.6135438213  14.6650714604  9.2941299201
O  35.0774053567  18.6991830935  9.2984321160
H  35.0380217220  19.5907704126  8.9044255246
H  34.5503888998  18.7779491226  10.1180026961
O  8.8681508011  8.6513397484  13.5129864745
H  8.9742621244  9.5505383810  13.9445217352
H  7.9469240117  8.6947482343  13.2033084011
O  18.3122710363  14.3771804651  10.3786913806
H  19.1105477364  14.1315494014  10.9045908651
H  18.2630847151  13.7264180080  9.6658689311
O  34.9483472737  10.2377546085  29.8901729183
H  34.9906943421  11.2437188475  29.9035130031
H  35.6633238533  9.9367895004  29.3258992396
O  10.5005731517  28.8548398567  11.7080529429
H  10.4121971409  28.9509195117  12.6866257409
H  10.0336231604  28.0070915977  11.5366864788
O  25.1007132226  14.0193908294  13.6291258519
H  24.6735878405  13.0947742220  13.5399070909
H  25.0139613737  14.4711714703  12.7072836629
O  3.5785311001  22.7549696395  15.0167308297
H  3.7705215744  23.1200873361  14.1339150180
H  4.2524218295  22.1111328052  15.3175900419
O  28.9854545597  16.6750064172  4.4007240732
H  29.9720229519  16.8641542690  4.6326749572
H  28.5933527718  17.5595677841  4.2185005709
O  21.7328916849  18.7445080741  2.1550967131
H  21.2798363387  19.6216945319  1.9128319867
H  21.3875829878  18.2845018428  1.3455865182
O  14.1960073858  14.8766875020  32.8973328067
H  14.5800922685  15.7110844898  32.5215977176
H  13.4043260475  15.1047673742  33.4735584950
O  17.0668823575  23.7724450175  6.2062412444
H  16.4284943530  23.0460304050  5.9453842169
H  17.8264345069  23.3461838421  6.5831536780
O  20.2119487422  14.4835967588  34.1225424055
H  20.5820032493  15.4058920265  34.0245650611
H  20.9782413639  13.8846417594  34.1143408451
O  25.9126970749  9.1927311477  35.9689397687
H  26.4001575530  8.3489637827  35.9139670230
H  24.9785045441  8.9094460836  35.9908573665
O  28.7007163029  7.8813695996  1.5609892267
H  29.3186185193  8.5772228985  1.2788409172
H  27.8474887749  8.2509450680  1.7356701319
O  22.2792894846  20.8133360251  24.0290436525
H  23.1608671136  20.7202691255  23.7088773244
H  21.9048548349  21.6400238092  23.5177353577
O  2.9455188759  28.6386666705  7.3052829867
H  3.4541336803  29.3598485932  6.7597358436
H  2.3528732406  28.2882368700  6.5967491120
O  21.8107101206  21.3588842715  16.7063220867
H  21.0119136577  21.2733820409  17.2713203255
H  22.2695445210  20.4826998618  16.8160554237
O  28.0374849350  21.6161513751  11.1224128423
H  27.2558682565  21.6006642780  10.5241576574
H  28.5968042857  20.9051771107  10.8507161372
O  20.6262875096  14.7189281581  6.4152579609
H  19.9240678916  14.1351466518  6.1245295888
H  21.1208442059  14.2485579954  7.0782473145
O  37.0550584320  20.7864198215  16.2909724527
H  0.2225994479  21.4802542810  15.7091484389
H  0.4609982122  20.5762045829  16.9710985026
O  22.4576028055  19.4690892944  9.8135078056
H  22.0525124957  20.3056274123  9.4731501119
H  21.7549678316  18.9130998860  10.2364776668
O  24.8826929663  12.9092268772  36.9011855942
H  23.9919512039  13.3317850081  36.7578826020
H  24.8086790642  12.0692393610  0.1478311002
O  5.0057795004  6.7542822396  32.0333963126
H  5.2711818928  6.8957705111  31.0958045782
H  4.3925168201  5.9794162430  32.0259619152
O  11.3280498698  32.3917930439  15.6644682672
H  25.5667683777  6.2904348243  17.0887186543
H  37.1151224890  31.2586995845  11.4563064114
O  11.5779450313  28.9998303062  35.2988395416
H  12.3570021518  29.5061138585  35.4879323799
H  11.0777316037  28.9399265177  36.1004569589
O  3.9038488365  17.5907327534  3.4718356550
H  4.3173326290  18.0638676191  4.1943256279
H  3.2063197927  16.9974678972  3.8279789432
O  28.3650308770  14.7635556159  22.7866168678
H  16.4187158550  7.5305416687  22.2876363342
H  16.0490590172  6.5928494020  21.1811373956
O  26.0744007204  35.0825416204  30.8172969417
H  26.6762340665  34.3633356202  31.1634098076
H  10.9043063210  23.8305179431  34.7951282299
O  20.6732652094  29.0828371539  36.4797749311
H  20.7104724012  28.5385348859  35.6791553193
H  19.7442601009  29.0303534417  36.7941478492
O  4.3920692100  20.9000495984  23.2799831257
H  4.8057952774  20.6653885087  22.4100252520
H  9.6095050228  7.1959002871  14.5217665638
O  2.7221925354  17.0962768149  14.0696410416
H  3.3642995374  17.3515454293  14.7090241786
H  3.0495633890  17.6605202884  13.3393295655
O  32.7855742696  2.6325520098  24.0637562382
H  33.7310838186  2.4582083793  23.9035502825
H  32.4578047248  1.9057946477  24.6342462654
O  3.4029398808  25.7588359999  33.9794614493
H  2.6189732891  25.9591367832  34.5357018052
H  30.4786956420  30.0379383656  3.4123167564
O  33.1780073675  32.5983699642  19.8290253227
H  34.1112158089  32.4755017766  20.2010508474
H  33.3308391575  32.0262489153  19.0767134580
O  36.7488841952  30.4039849978  18.7439456300
H  37.2271772587  29.5910955388  18.3636072494
H  36.3413444810  30.8498005736  17.9623973608
O  28.7875215098  36.8894880769  9.1436245014
H  28.4395511198  0.2029235990  8.4300828011
H  28.5710845459  0.2396843138  9.8653302703
H  32.5021920947  21.6933693086  30.9564852091
O  37.2545969601  5.3984633296  21.6756984612
H  36.9249056184  6.2519633351  21.3556823804
H  36.9954200265  5.3788837567  22.5975035183
O  11.1068548273  3.8163322317  19.9524842548
H  10.6433841148  3.8688714217  20.8196216000
H  10.9240780244  4.7009363908  19.6204889835
O  6.8225569622  17.3379060478  12.9811680987
H  7.5418091475  17.9223082828  13.2105068371
H  7.0528884706  16.9070671642  12.1364772321
O  15.4840421977  31.4917323756  24.5440217642
H  15.7895983144  31.6667925352  23.6162764786
H  15.9575892109  32.1704136056  25.1266223889
H  33.0579725746  30.9251109202  28.3816020810
O  28.0512048246  6.6342168778  26.7007706805
H  27.7192997941  7.3837447956  27.3194144719
H  28.9376237898  6.7619377417  26.7057598995
O  25.4653889190  16.9603637559  20.0912409290
H  25.4216900598  16.5251092433  19.2313705096
H  24.6130060208  16.9331120357  20.5620596788
O  30.9541446283  20.4799367955  21.5756397093
H  31.8539392782  20.4687753226  22.0096047321
H  30.4312720009  20.9617255100  22.2203589099
O  29.1969390155  28.0277480215  11.7809066734
H  29.7197929661  28.7204617111  11.2679041167
H  35.3550283182  17.9563454376  21.8403149799
O  19.8836256369  26.4672124914  16.2535872259
H  19.2933502904  26.2577150410  15.4756165389
H  20.1436663098  27.3944412752  16.0969207656
O  4.2362015880  0.2057994018  16.6076226565
H  4.6947415276  0.9240679352  16.0435100640
H  3.3945759972  0.3735561274  16.1715979289
O  27.9328655322  17.3871860295  27.0601386536
H  28.5229266580  17.3719692134  26.2678343878
H  28.1564428574  18.1651953449  27.6592163184
O  31.1538607338  0.0184675126  31.7230150243
H  31.7922867244  36.7809040562  31.0722508882
H  29.8783284326  15.6149361665  0.7246717659
O  1.9366018448  35.2894643773  17.4215019240
H  1.5591402916  34.6499946562  18.1010475213
H  2.8967255798  35.3914983442  17.5587220133
O  14.9559178042  18.5402798797  25.2897991858
H  15.2130832721  18.2635353212  24.4050994356
H  2.4656022551  24.6866428204  22.3119350487
O  35.2798491659  13.3421566153  27.2247005487
H  34.8509426403  12.5270998005  26.8668775591
H  34.7184936102  14.0017358848  26.7881778489
O  2.5603695637  30.4021835614  12.8505454214
H  22.9983893582  9.2732209485  22.3481281834
H  3.0248804124  30.2091410591  12.0572584381
O  34.2750363612  21.0223556205  16.1741118168
H  34.0201699387  21.9002494055  15.9193338389
H  35.2293572325  20.9574542547  16.0808484200
O  30.6681310614  20.8719930790  17.7559724095
H  30.9446147075  21.2008553758  16.8552313419
H  30.9004113041  19.9278587911  17.7018445891
O  13.1113545255  26.5321447205  8.1851043480
H  13.1839705542  27.3121991460  8.6853139876
H  12.9500508553  25.7163059519  8.6775681915
O  34.6953440045  12.1525592782  15.6214066139
H  34.5914174863  12.8101381087  14.8889852114
H  3.2549626671  20.6288044049  11.9959002822
O  22.9871026777  24.7867103427  19.3572488975
H  22.4821954859  24.8625354575  18.5357088808
H  23.7924348017  25.3331833602  19.2843518796
O  27.2834161209  6.7689885085  21.3306130123
H  26.7843003350  7.6110299099  21.3170510602
H  28.2415784529  7.0589089599  21.1071577200
O  29.8135790750  12.9977909644  32.2244231155
H  30.3331152587  12.6230470012  31.4669125668
H  30.4499444242  13.4329786500  32.8207065372
O  15.5954140515  18.1084589683  22.6460360550
H  19.8119762623  6.0986885245  36.0458934883
H  15.8129135985  17.2267710921  22.4241739678
O  27.9334359343  10.9192845022  21.0411106707
H  28.2003122334  10.2563949483  21.7078624430
H  27.1538173643  11.2518556521  21.4868599666
O  35.9895563148  19.8234303313  5.4331070918
H  35.5522235803  20.2354386530  6.1893001931
H  36.2559645317  20.6551735925  4.9394364988
O  10.2327598515  33.9637077946  27.5209094884
H  10.1183817297  33.7261035293  26.5579129398
H  9.8729585853  33.2164542851  27.9727920614
O  26.3168985300  21.3896303740  26.0035576285
H  25.6528139657  20.7469510577  26.2738763343
H  26.5697179343  20.9800881381  25.1682838322
O  3.5464732251  24.2017449329  12.5327559205
H  4.1734413562  24.1740080975  11.7643033350
H  3.6572624964  25.1812133765  12.8485304313
O  4.7295905810  9.7910372419  34.9885495470
H  3.7791371086  9.6557988567  34.8555912654
H  5.1116844540  8.8843945868  34.8739439651
O  15.2829583986  20.4253756951  2.4921393884
H  15.2114717421  21.1023446867  1.8214786333
H  14.5207088676  19.8241022583  2.3229609889
O  0.2324381007  28.3209789916  34.4800755641
H  36.5892739886  28.5903518850  34.7139252244
H  0.9054198878  28.9655248479  34.8526921792
O  14.1379763364  19.7105768899  8.2275068786
H  14.6050866618  19.1429941217  7.5597828817
H  14.7628247246  20.3957294442  8.4562053144
O  35.0024173692  14.7284714309  20.3241691078
H  35.5346605297  14.3187106734  19.5982334872
H  34.1692634640  14.7782464752  19.8676140469
O  2.7096185654  3.7793556675  15.4438548533
H  3.0422242506  4.5510265788  14.8936929704
H  3.4873909571  3.2416720497  15.4122401682
O  28.8916551426  35.5063620390  27.2855983867
H  29.2831658187  35.0255220564  26.5431220256
H  29.3909457279  36.3426900361  27.4851809760
O  15.9543845791  31.9361905933  21.8322476335
H  15.6849229695  31.1425267460  21.2969186068
H  16.9385636510  31.9776896510  21.8226545336
O  12.1238941691  14.9195536386  7.1845794118
H  11.4685846145  15.0826743051  6.5027925751
H  11.7454447407  14.2994754797  7.8248533398
O  24.7511428391  17.7795524490  31.6608633465
H  25.2282593863  17.7835375459  32.4660927973
H  25.0748056596  17.1614261389  31.0063062032
O  24.9014160612  4.5314332247  35.4080238299
H  24.2454613307  3.8799647494  35.5232527136
H  24.4806872630  5.3881794324  35.6017178747
O  14.7821319712  22.9684698201  16.8120100083
H  14.0873263667  23.6156031818  17.0151192272
H  15.6826590771  23.4750719629  16.7354789077
O  27.8759447007  36.8473125847  17.2515988284
H  27.2067614499  0.2448456485  17.5887560771
H  27.4383559476  36.3377815054  16.5507429946
O  10.7375735676  6.4131665825  19.4380872940
H  11.1191339880  7.0013022626  20.1909578259
H  9.9097774029  6.8417047338  19.1290311124
O  24.6287057304  7.4701727585  27.8092025342
H  25.2262403868  8.2467144636  27.6421561246
H  23.9696437603  7.3980873052  27.0811705646
O  29.1635574429  23.8337459385  10.9137533471
H  28.9305798742  24.2097351183  11.7742350504
H  28.6510954459  22.9508986917  10.9237204446
O  25.6420319858  11.7867821362  22.1827958011
H  25.4931359075  11.5292514791  23.1370807886
H  25.4832302628  12.7651177342  22.0965574047
O  21.1881712590  6.0779414418  13.1455696695
H  20.7198513406  5.2090814065  13.2370399796
H  20.4227107633  6.7167569325  13.0561533784
O  23.8026598843  9.6286768135  25.1411040778
H  36.6982612990  31.3289293746  9.9787607276
H  9.5393212322  21.2452799467  18.7153162804
O  35.3052293234  17.8548930484  3.4850390588
H  35.2949236668  17.1773168771  4.1067722028
H  35.4116685249  18.6012492064  4.1487816384
O  34.3510145811  7.9924448701  11.2292275280
H  34.9061710879  7.4157829528  11.7793513573
H  34.7159254704  7.8429740015  10.3249848812
O  33.2063157460  31.3817992156  31.5370624909
H  19.4997566160  3.8175028755  32.9926423420
H  19.5709715284  3.9304352329  31.4728083823
O  15.9933241071  31.1312904652  30.6319865541
H  15.7824400541  31.5116917754  29.7823041336
H  25.2257602138  34.6764349311  30.9911960241
O  15.9533722299  14.2563173321  11.9445181157
H  15.9918890700  13.7222405703  12.7361245956
H  16.7885224507  14.1878045997  11.4542830556
O  24.9886059108  2.6182939317  22.6409588933
H  24.9666563639  3.4321296799  23.2413974856
H  26.3141810835  32.9408816922  16.6718961780
O  32.5828012255  10.0657176795  28.4477223805
H  32.4967323322  9.4026548473  27.6876650919
H  33.4579694027  9.8399247043  28.8173692577
O  35.8051574037  35.5307958130  26.7590586135
H  36.5969208167  35.4606462557  26.1995363674
H  35.7289695150  34.6550159505  27.2514962149
O  36.9382560767  20.8144549851  24.2570292482
H  0.0515470648  20.1794202682  24.9121258012
O  5.7038448555  15.8698823067  22.3863932687
H  4.9715695920  15.5233522227  22.9233794751
H  6.5145445998  15.3709487135  22.5806895325
O  10.0840659418  19.0343389754  24.9083994818
H  10.2411813572  19.5419797539  24.1106834424
H  9.3458709595  18.4253477587  24.8643591768
O  24.0965181768  18.7943263893  17.8618808289
H  24.4966123062  24.4880736137  24.8599513362
H  23.3119412843  19.1345855511  18.4311538682
O  27.8783061573  21.4217924498  17.0656280169
H  27.4513039142  21.7931234350  17.8960140642
H  28.8260638059  21.4572769998  17.1741335703
O  27.2076596940  14.1888165088  19.6117183473
H  26.4430009803  13.5361740189  19.4555731972
H  27.1848229468  14.3725160430  20.5642595652
O  25.6052774910  21.0650717483  1.7195130459
H  25.2633490642  20.1401611533  1.9350576748
H  26.0855694418  21.1503694779  0.9038465242
O  26.1350588916  1.9238360009  17.6142932434
H  25.3993371030  2.2713557363  18.1286241926
H  25.7355321480  1.8201354857  16.6943342172
O  27.0423427439  15.2173246736  36.0987658276
H  13.4852621973  33.4678953008  13.4243645266
H  26.1669617982  15.1122503837  35.7245803236
O  27.1254653864  4.1405620012  4.2482758340
H  27.2398353390  4.4208970722  3.2874545419
H  26.1948716987  3.8953749641  4.3864073217
O  15.8903281281  20.7512450525  26.7447376255
H  15.5976099612  20.0269766085  26.1275807724
H  15.9743828286  20.1921761795  27.5351094540
O  25.9970758062  9.5914914927  26.6536764161
H  25.2001742978  10.0421192592  26.9662152438
H  26.6751271908  10.1151766889  27.0918250988
O  35.1406276392  16.9670746630  21.7833843505
H  35.5007421236  16.5957338871  20.9936106548
H  20.1037371955  22.5648812678  6.1449698278
O  36.7073763535  27.3366405984  31.9117035814
H  36.8823280560  27.7572192610  32.7798861132
H  0.3303665755  27.1702834031  31.5440779457
O  33.3317526212  21.8445104758  27.7063871744
H  33.8486808054  22.1670752628  28.4484478645
H  32.4795182392  22.2764056642  27.5163107833
O  21.1692087035  5.6020227362  17.0933473184
H  20.6479773502  6.4646552052  16.8130117292
H  21.6898799520  5.8218200144  17.8843081084
O  13.9394425417  14.2917144914  21.4310150349
H  14.6601140853  14.6893194663  21.9513717354
H  5.5944627631  14.2755801327  31.5023719326
O  20.1233403043  13.0153885746  18.7526825793
H  20.9468482900  13.5888595327  18.6261321339
H  20.5455307666  12.5045674305  19.4463635405
O  24.7204382304  15.5375887317  11.2723269129
H  25.3696013461  15.2135250109  10.5813497579
H  15.4640789894  17.8822892498  25.8355209916
O  4.5749387192  35.3077570086  18.3556774017
H  4.6216878581  34.3409060728  18.5697310228
H  5.0777476135  35.8491915078  18.9727353703
O  22.1300348158  9.4297607238  21.8349445290
H  31.7379116135  12.6360868760  16.0236225276
H  22.0048590407  10.3706125649  21.5811034834
O  33.7186307939  35.8781351961  34.1642874852
H  33.3196749636  36.7729625368  34.0708115496
H  32.9178032724  35.3475205901  34.1163974907
O  20.0648939858  22.8889735134  32.8569982566
H  20.1917909835  22.1140627763  32.2527132677
H  20.6078009212  22.7671126009  33.6457628120
O  20.3763257146  8.8449038582  25.6976925004
H  19.7020461179  8.4211418310  26.1502607722
H  20.6324143158  9.5648339611  26.3379106043
O  1.5807133914  21.4485703199  34.3847882686
H  0.9877683805  22.0971374462  33.8465944989
H  11.2089829070  10.3043911055  21.2780190053
O  33.6332999713  19.1253444928  28.2422116323
H  33.5077393141  20.1005419828  28.0137390645
H  32.8589461651  18.7959863979  28.6474687409
O  18.1665074582  31.7678495050  34.7470598127
H  19.1065474785  31.9180322900  34.5050484114
H  18.1616233376  30.8084960603  34.5111043957
O  9.5126842435  28.4515117798  32.4647914958
H  8.9783110529  29.1972157911  32.8425226471
H  8.9838229381  27.6429137407  32.4715106396
O  33.5510941541  24.2213549156  5.7538901238
H  29.4423828324  8.3452526929  3.3830771985
H  34.3488733256  24.8049931521  5.7343643195
O  31.6365148888  18.8810336530  32.6226922377
H  31.7223331216  18.3118867545  31.8829100850
H  31.4407132842  19.7925145920  32.3099832877
O  31.5799725895  3.5408142178  32.0451290805
H  30.7922006396  3.6453521748  32.5491397919
H  32.2858826232  3.4440964229  32.6968016340
O  21.9384747400  12.1172380867  20.7459516818
H  22.4288481128  11.6434089983  20.0530168949
H  22.5169496819  12.7161201973  21.2786500875
O  23.8365982018  10.9828884807  28.1453158057
H  22.9533813997  11.2575205461  27.7550559093
H  24.3465362266  11.7501831493  27.8897579001
O  3.3891481879  31.3833653191  36.8243983721
H  4.0676137507  31.7105671400  36.1955847159
H  3.8141222179  30.7514268657  0.1381090387
O  32.5622123844  16.1635872727  21.6629428325
H  33.5020096589  16.3490086776  21.9245568288
H  31.9968591472  16.6671707073  22.3322580321
O  33.6065141498  21.8677599251  4.5223829703
H  33.6625435024  22.7456657893  4.9236403491
H  32.7159306371  21.9885212545  4.1471810446
O  27.9648335948  9.3910332583  32.2398762110
H  28.2388126867  9.7356088585  33.0613765154
H  27.3793089519  8.6517847575  32.4014769684
O  7.7844105162  8.1108299894  26.0781826215
H  8.6981736402  8.0952272290  26.4506109057
H  7.1745816737  8.4021357337  26.7994131052
O  19.5067163024  20.0905808726  7.9614990552
H  18.7156644596  19.9727592872  7.3618745341
H  20.0349975755  19.3710485277  7.5484322624
O  24.5853322977  4.7190117694  24.5688704300
H  23.7560194210  5.2625069564  24.4149300750
H  25.3042952526  5.3412224790  24.3954802412
O  31.8500568107  17.3055550073  30.4692889676
H  32.6715260781  16.7869768880  30.3569858781
H  31.1360628048  16.7777913784  30.0426983865
O  6.3558832713  25.3343398815  14.6493584467
H  5.9315943718  25.2329271735  15.5012268665
H  6.9474072007  24.5487530264  14.5358273006
O  2.0022700533  35.7101992736  35.8519062974
H  2.4830478143  35.7109043393  35.0436248993
H  1.2476845741  36.2089289324  35.6288699353
O  3.3554212362  6.7770931190  36.6648665581
H  3.4406084005  6.4392305392  0.2875650861
H  2.9779607171  7.7124808049  36.6607083130
O  36.8027974685  11.9469546205  0.5320866076
H  36.8023083934  11.8197042638  1.4846360812
H  35.8841283158  12.2579808799  0.4067909870
O  25.6422459324  24.7813062523  9.6797642180
H  25.3988791939  25.2860955344  10.4853100363
H  26.5435136684  25.0528727920  9.5130455998
O  26.9465857844  17.8332126250  2.6951854931
H  26.1518663126  18.0410429398  2.2088033223
H  27.4479930963  17.1553344159  2.1467952136
O  25.2091406108  13.5827878907  4.1948164332
H  24.3370140545  13.9209925941  3.8504315049
H  25.2014610015  12.6080804315  4.1491693946
O  26.0358251022  11.0728388076  31.1449019047
H  25.2726542961  10.5710380534  30.8467176029
H  26.7095314268  10.4157099178  31.3290501823
O  31.1083577433  31.9447675483  28.9132323826
H  30.4116148060  31.5510647499  28.3561822115
H  30.6749955934  32.4885303031  29.5650899639
O  24.4198228672  8.7076847342  30.4892737594
H  25.1313660693  8.3006865369  31.0082038184
H  24.4202380727  8.2177722408  29.5878567860
O  10.6345783878  1.5267572623  29.1567724795
H  10.1597775894  0.7615915538  28.8379139357
H  10.7039774555  1.2980001783  30.1242283169
O  20.8529720585  21.1127685525  0.5705735682
H  20.1457907461  21.7893085631  0.6179939532
H  20.4162562712  20.3590844438  0.1940794723
O  33.2097136067  14.1662448931  3.4132544480
H  9.5580700470  19.7718084327  18.1574191987
H  25.8360567913  4.8690575931  17.6961549701
O  24.3859689506  25.3165407397  28.5650248963
H  24.8510384473  24.7666673970  27.9173903614
H  24.7542336321  25.2582018433  29.4432356315
O  34.7986453043  8.0717593422  34.8660022788
H  34.1185034100  8.3358847353  35.5568737688
H  34.3106814232  8.1107377153  34.0338244042
O  33.6647702059  1.1316120761  3.1545517791
H  36.6228607729  23.9818088333  7.3501390038
H  37.2241995961  22.6690690873  7.3827199503
O  18.2558178742  26.1753658494  11.6699737198
H  17.9700475659  25.5076934369  11.0096458243
H  7.7428985898  0.7493783678  1.1334402914
O  19.8955525178  22.9023615515  19.4730492271
H  20.7023744064  22.5429426925  19.8337334753
H  19.1480138445  22.3222323739  19.8352457301
O  1.2916618458  5.8218683470  19.2829247031
H  0.9071814796  6.6717010710  19.4215222770
H  7.4043349771  12.6488723366  4.8548409847
O  30.4119545729  26.8085840778  18.1600354582
H  30.6803757089  26.9608284336  19.0649935306
H  31.2617015512  26.9513596634  17.6080937907
O  10.1165137027  17.4578864484  31.3587945168
H  9.3335927119  17.9693977484  31.6515329872
H  10.8304351237  17.6442077571  32.0222200903
O  9.7767547912  35.1137790960  9.2914235987
H  9.6613181017  34.9334926410  10.2790529526
H  29.9373144616  26.5345854098  6.8027740949
O  31.6488948287  26.6758996395  14.1535679578
H  31.8547585013  26.6985094304  13.2004347041
H  31.2280217813  25.8437358558  14.3971909789
O  27.9502944920  4.5593619506  9.2369138428
H  28.0595209865  5.5365943345  9.2436313073
H  28.1292357093  4.3587715751  8.2907663172
O  35.8102382347  8.6087151107  2.9886230756
H  35.8050099499  7.9357118702  3.6390827645
H  35.2558420184  8.3349102753  2.2727963395
O  31.1742056088  36.8746796854  10.7372804344
H  36.8905855665  3.0017310426  3.7151637754
H  31.6579401651  35.9845732845  10.5992924792
O  0.2772282947  0.7514253978  11.6594597334
H  0.9692343805  0.6252225510  10.9100158420
H  0.0275762852  37.1007830428  11.9238535433
O  4.5951942712  3.3749481259  6.4127827057
H  5.0926727237  2.5961297418  6.5574583896
H  4.2954925801  3.7105614674  7.3018642498
O  25.9117157239  20.3623979991  7.1507319187
H  25.2766009982  19.6500398605  7.4543433777
H  25.8299067107  21.0008518550  7.8998522502
O  26.9068171783  23.3969575039  5.1065057765
H  27.0958412252  23.5322707936  4.1977147917
H  26.6056486430  24.2315135120  5.3631707697
O  27.1491916929  30.2163914801  11.3840447498
H  31.5913011862  27.9261124001  6.9396990173
H  27.2157788487  29.7205815286  10.5530647738
O  1.2486623313  30.6021042581  15.6056119717
H  1.7794094926  30.0816217741  16.1892129804
H  0.8584201922  29.9142653138  15.0827794064
O  24.5215779336  20.5159966354  11.3729069392
H  24.3234051786  20.9430675388  12.2288555264
H  23.6529834142  20.2179914020  10.9733545849
O  29.0577209016  31.7778920401  12.8876392688
H  29.3933935369  31.1551463872  13.5433621614
H  28.4999177928  31.1466625282  12.3463902645
O  12.4989414349  20.6259034948  5.5179437192
H  12.4082603090  21.2752014848  4.8089539805
H  26.8954584921  27.7209176298  13.5338824856
O  34.5053830627  1.2576828902  29.8165280833
H  35.4889369987  1.1570261449  29.7987092069
H  34.1750440000  0.3174718884  29.8442652218
O  32.8120601640  7.4286631385  7.0529502701
H  33.6278381908  7.3101168145  7.5557727429
H  32.1730754673  7.6827036165  7.7463357922
O  2.9919022226  6.6228691536  28.2014439778
H  2.9127246737  7.3311608080  27.5316737475
H  2.0339948533  6.5138047771  28.4949710018
O  26.6492085280  26.3706929683  5.8847350161
H  27.5903535885  26.4518590514  6.2335017389
H  31.1450786490  28.5595183208  14.2873768234
O  10.4286190513  7.4818784129  6.5487578823
H  9.4555080570  7.3660031394  6.5490898953
H  10.6455353093  6.6177713082  6.0898752647
O  18.6127776624  22.3409630384  16.9492075321
H  18.8568244231  21.8151330647  17.7775987988
H  4.7913764705  9.1318025853  1.0647442739
O  2.1738383778  30.1222983422  34.8905099340
H  2.1279000709  30.8711216707  34.2538260727
H  2.5719893855  30.5026284197  35.7105034766
O  0.2063517682  17.4421588272  9.2609691266
H  19.8317079427  30.8387722122  8.4846164146
H  0.8116494539  17.9374938353  8.6543344168
O  5.1948300705  35.2207090956  15.4719264063
H  5.8102680139  34.7099636680  15.9168535931
H  4.8513066978  35.8227117495  16.1929096692
O  22.2547455099  33.1195241104  10.0123324376
H  22.8218674808  33.7510040220  10.5004494181
H  21.8276826374  33.5346132706  9.2584486372
H  14.5679766843  20.2337113518  31.5646510934
O  18.6841530301  0.2832616259  19.3895490910
H  19.4476961560  0.0755121888  18.8597425161
H  18.1286294542  0.9261835304  18.8723436149
O  29.3284647558  24.5354383166  24.3959953946
H  29.9867347588  25.1379665866  23.9674869152
H  28.4980441937  25.0176205393  24.2006069354
O  26.9465915443  6.0351018808  24.0892211360
H  25.3728011819  14.9922474474  31.6716448098
H  27.3078486142  6.5579185503  23.3014269692
O  23.0522168188  27.4878418420  33.9743795294
H  23.6807579068  26.7977865900  33.8046325556
H  22.8939083851  27.7889330453  33.0395568366
O  5.7762585247  0.7717478904  6.9585396184
H  5.3109539518  0.2449156803  6.2117174236
H  6.6960511654  0.8178922417  6.6979265475
O  25.2554702782  0.1892531208  34.7284357670
H  24.4621989339  0.8721571595  34.7600163064
H  25.8615816337  0.4802497130  35.4077621576
O  28.5376441706  25.9535613353  21.2364855269
H  27.9551222416  26.0102223782  22.0598076378
H  27.8073283059  26.2130804652  20.5996809899
O  1.1145829178  18.8360058389  6.8083813894
H  0.5326045650  18.7443225641  6.0555358551
H  2.0205428729  18.6404560959  6.5129862600
O  36.1841632619  34.6972019047  8.6002093496
H  35.6801607412  35.5077700727  8.6362989071
H  36.3910777665  34.5509899935  7.6857132415
O  30.7195261300  33.0217646266  4.2289147284
H  30.5449654498  33.1836536777  5.2042921856
H  31.0231769729  32.0665812156  4.2049758951
O  34.2890672145  27.5302563222  26.1221993458
H  33.7621221070  26.7753184476  26.3359640897
H  34.4320181317  27.9634569067  26.9970399706
O  26.6398732902  33.3764681704  13.7514630890
H  26.3354308112  33.3592267358  12.7876698075
H  27.3772745513  32.7762566768  13.7509711344
O  15.7268181073  9.3159996615  1.8511800007
H  16.1549017728  9.3523971105  2.7521039049
H  14.8120096370  9.1260205899  2.0502827238
O  29.0024914544  8.0612429743  15.2760411946
H  28.0890525333  7.9761498975  15.6703901694
H  29.1114014699  9.0219653504  15.3186842896
O  11.9759232095  14.7872129106  34.6362198581
H  11.2329597666  15.0135260536  34.0351390558
H  11.8960631717  15.3885090097  35.4285941322
O  21.1468811835  36.4407876674  18.2429155936
H  21.6118903121  36.3406953821  19.1175116888
H  21.4516613399  0.0658256384  18.0498334206
O  9.1889243650  9.5519829943  35.7091109678
H  9.4194636189  8.8188312937  35.1110956000
H  8.9335604543  10.2572827030  35.0986393817
O  33.5769723154  18.8783133266  14.5957763821
H  34.1421902710  18.2462728288  15.0087475730
H  33.7747948872  19.7549372043  15.0234113703
O  3.8048191698  37.1065519831  5.1948930071
H  3.6532846648  36.4717688871  4.4463630288
H  3.1332668570  36.8963643069  5.9039097982
O  34.7044733603  29.3594411024  12.6064569887
H  34.7001271603  28.4688024559  13.0761467106
H  34.7397602311  29.1861461886  11.6514704606
O  31.6234032101  18.1862574989  23.8857379519
H  31.4064723462  19.0409786008  24.4127173204
H  32.2175878167  18.5166661025  23.2058400067
O  35.2051573148  31.9544467131  9.2094239245
H  35.1740567416  32.9035849508  9.1262987621
H  34.9266420819  31.6477014388  8.3417660621
O  0.8378031104  33.9378400636  6.2089937810
H  0.9436577563  33.4056284457  7.0205646436
H  1.2675726262  34.7460373875  6.5104639737
O  30.2977367148  30.8660474185  16.7444870319
H  29.9193619065  31.7593776548  16.8046984941
H  31.0809335607  30.8495170094  17.2869894927
O  5.3215719404  33.1260700630  3.9016375920
H  5.9950898864  32.7171836969  3.4019297617
H  5.7095031566  33.3607656674  4.7647237467
O  15.9397881104  13.2700313489  34.6776730217
H  15.9061665353  12.4506918313  34.1544769829
H  15.3843435624  13.8283920641  34.1279094223
O  23.1222262475  22.4096696933  1.4829275854
H  23.8988394501  21.8477390578  1.5678516779
H  22.4238324755  21.8543682388  1.0531009139
O  2.4128762079  28.1056659063  37.1639402590
H  2.3376591326  27.1724768642  36.9140838372
H  3.1010329454  28.0847295816  0.6345344542
O  34.6035526092  26.9280795817  14.1434480342
H  29.7090826232  32.1965558807  33.0023644375
H  30.3787238693  37.0585247023  12.5602532778
O  24.1042994157  30.3592261833  8.2867435429
H  25.0427594289  30.3281345903  8.4696724681
H  23.9481379369  29.8822463274  7.4594495127
O  0.4049892252  27.3065913494  15.1176848982
H  1.2806396457  26.8382864820  15.0463152816
H  0.3405999877  27.9932346422  14.4407943664
O  4.0104779210  18.3015145807  16.0214518124
H  37.0911470191  0.8157694747  16.7924457242
H  0.3072927471  36.5951851664  17.2405686681
O  3.5189484810  15.7670744199  23.9629233007
H  2.9503731226  14.9577565680  23.9889017265
H  18.9982008636  26.6109768389  11.2359804373
O  10.3766158575  11.7657810529  23.8423543036
H  10.7035847311  11.7237308744  22.9011469642
H  9.5884038541  11.2760383508  23.7896032991
O  9.7723218032  6.5413877841  15.2487277794
H  8.9960521822  5.9474063797  15.1494510721
H  3.1159220894  5.8238255611  10.0737366481
O  28.3868190946  26.1288094266  9.7070634132
H  28.6281389545  25.3049858403  10.2434684034
H  28.9914544399  26.0011574167  8.9512828617
O  2.7421140335  34.2172899940  23.0523204649
H  2.3940022838  33.4047749258  23.4097137209
H  1.9024934409  34.5434880913  22.6476640602
O  7.9182846038  34.4779424000  1.0611436925
H  7.3370758897  35.2262796126  1.3304533691
H  0.6970331643  14.0174853459  8.2401811630
O  28.4650984499  28.9184378834  17.1536988638
H  29.1633938408  29.5502437063  16.9681437606
H  28.9569894205  28.2162907106  17.6108762682
O  31.7547235433  26.2159217912  4.4722888779
H  31.2670192305  25.5932398276  3.9026409746
H  31.2664016803  26.7525142317  5.0772108005
O  20.3144426758  18.4366189416  11.3661558297
H  20.7049635434  17.7926861644  11.9552681415
H  19.6814216084  17.9122150267  10.8531983774
O  36.5127164954  25.3193676752  12.8134589873
H  10.3955716043  33.4455637521  21.5307193570
H  37.1693022356  24.6725735108  12.4652107108
O  27.1628773996  4.5868288954  19.4206022386
H  27.2095305038  5.3707923170  19.9980306988
H  27.1922248751  3.8214992328  20.0118366753
O  14.9928264569  22.8086614999  12.9121165586
H  14.8194830906  23.7398085540  13.0728437446
H  14.6865244816  22.6990107809  11.9819367835
O  22.0814383134  26.1624187577  11.5559172924
H  21.8505120095  25.2041920575  11.3958108147
H  23.0388462541  26.2649134573  11.5114527951
O  33.8875490343  30.8310770070  27.8200753889
H  30.6023119707  23.6977590378  25.8375436655
H  34.3137368050  30.0930484379  28.2221699735
O  30.3679709700  20.0697481390  25.5816927715
H  30.6638596660  20.3302038721  26.4715524181
H  30.0603305709  20.7646540743  25.0023182314
O  1.8131984865  31.2011015550  22.5585332433
H  1.2119983146  30.6266406219  23.0975505659
H  1.2720922914  31.3145909733  21.7000868401
O  9.7554670813  23.5147856428  24.6063642755
H  10.2913105553  22.7910751323  24.9183299615
H  10.3632080930  24.0205177718  23.9828364956
O  26.0419706071  27.9052356294  13.0344571612
H  25.3139171897  27.9428716201  13.7184032739
H  24.4527452870  31.7575689936  15.6242129663
O  1.8307216417  8.3383768489  8.4142040371
H  1.4331699882  9.1850750428  8.7152721580
H  1.0968830714  7.7346546137  8.0715447256
O  28.1805233011  33.1033346767  19.6522149697
H  27.8613007516  33.6742107023  20.3593163519
H  27.6320772686  33.3891939102  18.8594886398
O  29.1198749607  12.8797753069  28.2317835197
H  29.5562121061  13.6210779720  27.7522431657
H  29.7148544672  12.6784872262  28.9835174032
O  14.5508729880  16.2831079662  3.6965063873
H  14.5162654353  15.4579611802  4.2183198854
H  15.3269170156  25.5860980567  25.6466046117
O  1.0297081259  27.1439567679  20.5022013181
H  0.9523713489  27.3936439406  19.5589234456
H  0.5027993884  26.3173780403  20.5420215070
O  1.4746617690  20.9351737063  0.9208032993
H  0.7282598219  20.3781199537  0.6307279943
H  17.8819042434  21.8076054371  16.6238985041
O  6.3577177546  33.0218244820  24.3160113194
H  6.2974418108  33.9279860127  24.6377296729
H  7.1245316516  32.7385373062  24.8708699241
O  20.7135827806  30.6464016072  8.1658568773
H  29.9842844195  33.2002938302  12.3278577497
H  20.9252677039  31.5238531177  7.8593899520
O  24.7424195266  3.2905367370  26.9108249530
H  24.7324373716  3.8110518414  26.0294476007
H  25.3921232338  2.5472429382  26.6779755963
O  20.4287803719  28.0071577864  10.5356957858
H  20.0095713741  28.3615665216  11.3615778240
H  21.0425701080  27.3351051163  10.8441464284
O  22.5050446696  27.5285579772  8.1263983156
H  23.2766916239  27.0405583338  7.9227468556
H  21.9384472962  26.8891053035  8.5716879279
O  10.0515615433  17.3949169030  27.3051280998
H  10.6095822319  17.9238678020  27.7992336211
H  8.1897081372  11.4445677329  6.7542504078
O  11.5683063031  4.6238279644  10.6377595304
H  12.0480781184  4.7498736911  9.7738934849
H  10.9132438374  3.9786025456  10.3653779492
O  17.0331591565  21.6097879689  32.9932833830
H  17.5103460737  20.8954556690  33.3771720913
H  17.7733574931  22.1947849704  32.9143135958
O  0.2174319770  9.8896885692  28.0966315402
H  36.9428109829  9.7613110257  27.2900167017
H  0.4687325188  10.8143079482  28.2155327560
O  30.8156757513  34.2904212414  19.0338449069
H  16.5043207820  18.4652879106  22.4325756643
H  31.5198890635  33.8323014462  19.5044687442
O  33.0929367874  5.3836202973  13.9048034804
H  33.9703648569  5.6128964632  13.6363042811
H  33.3172584229  4.6883122199  14.5356448917
O  18.4433335037  28.0131979515  29.3483961287
H  17.5680963706  27.6330538199  29.3914357828
H  18.8940909447  27.1701473806  29.6087578866
O  22.2049111947  22.3112263147  26.4976255621
H  21.8918252180  21.7218418636  27.2084263258
H  22.3381969233  21.7928996699  25.6438615755
O  33.6384455904  21.1206052985  19.3237145622
H  33.2687007611  20.2494655820  19.4395185058
H  33.9038200877  21.1794197920  18.4319395216
O  35.1940785440  3.5485787921  6.7967140118
H  35.0828822129  4.4680190585  6.5110160930
H  35.0028829122  3.6541578043  7.7266800914
O  32.7280521315  15.2141333249  18.7131426232
H  31.8197281445  15.6154403167  18.8956664448
H  32.4450749944  14.6311674342  17.9985168289
O  35.5300919668  24.4265099786  26.9702227189
H  34.8359714062  25.0630786273  27.2134856690
H  36.3683068085  24.8902345555  26.8358412965
O  23.5444924780  35.1350153005  11.4569744144
H  23.5166200750  36.0969026607  11.4795921034
H  23.3474827538  34.8669444144  12.3714850186
O  8.5462210207  31.8585803015  10.5951449182
H  7.9996407691  31.1077299670  10.8672009435
H  9.4927986480  31.5175694727  10.6794639087
O  26.0011253838  22.9303326242  14.1072141334
H  26.6825545943  23.5484160746  13.8399178685
H  26.3021541468  22.0095743273  14.0860490565
O  10.3150562514  28.2384263303  14.6577717384
H  10.8203989164  28.7884223780  15.2926921423
H  9.4617394925  27.9996038993  15.1080158563
O  13.7124977690  33.6596988835  21.7712016511
H  13.6597021018  34.6013458728  21.6462517167
H  14.6221554580  33.4127286779  21.6050150670
O  35.4038871387  22.8760415688  35.7909863454
H  35.9502819447  22.8814715336  34.9931714335
H  35.7395626920  23.5913291553  36.3449171037
O  0.0722504446  15.4414067335  7.2125917524
H  0.0617127773  16.0235347348  8.0285595426
H  0.1374344197  15.9531956679  6.3938060773
O  3.8214879547  18.9410072073  19.8210851957
H  2.9451642090  18.8463615938  20.2616702237
H  4.3551297322  18.1284359206  19.8822801949
O  12.1142585282  29.9625239182  20.9483344106
H  12.0889817467  29.4067707162  20.0590029117
H  12.0428134436  30.9378328007  20.6750450189
O  29.3192850327  21.6467935394  23.5434799126
H  29.2478959120  22.6655224707  23.7581271381
H  28.4224001215  21.2034501660  23.5496403871
O  16.8746564294  0.3932675772  11.2804577042
H  17.3543393072  36.9838339929  11.7695193067
H  16.4976197546  37.1873013887  10.5122885306
O  29.3906555682  23.4468010870  19.9973366925
H  29.1451139063  23.7371421967  19.0668161568
H  29.2063021615  24.2558707926  20.5378227753
O  0.1570491903  4.3728039638  9.4147932904
H  36.4556746685  4.3283853592  9.4289719145
H  0.4577226685  4.4341544770  10.3591532012
O  34.1961688389  32.8496807705  11.9898689709
H  33.6007356895  32.2120829991  12.4137461964
H  34.8445965067  32.3927827488  11.4296181043
O  29.4508350716  14.3971930566  16.2174665848
H  29.2695131892  13.8460493138  17.0274500853
H  28.9841189955  13.9109990564  15.5173301088
O  29.8307542355  33.9376141407  16.3825436017
H  28.9288051189  34.4101508605  16.3979903297
H  30.2250834596  34.2076188099  17.2593038241
O  31.7027597367  25.4693053662  23.2396046144
H  32.3861091283  25.2072321398  23.8365814084
H  31.8893606514  26.3356683415  22.8475211242
O  25.1842269576  25.6487175635  31.1103348727
H  30.4640930694  0.3428730654  13.9435077559
H  3.0449303056  1.3302115802  25.3444568936
O  10.2224542672  19.8474808897  1.9015502689
H  10.1623189783  19.7289132088  0.8855354728
H  9.2944994423  19.7578657234  2.2441749025
O  9.7497497092  15.3655837139  33.0135719183
H  9.3978573057  14.5674689482  32.5271893895
H  9.5065526679  16.0710673223  32.4550852914
O  3.8977085852  26.9751206211  29.0037553012
H  21.8350092156  32.0679495928  34.3258100687
H  21.4284813723  33.5939402097  34.2565186398
O  7.0413623452  0.0963363035  1.0530848118
H  6.1889316498  0.5897994115  1.1814852191
H  3.8837303113  15.7261621050  24.8591162180
O  31.1054670975  20.8052786764  35.1234788118
H  31.1268619042  20.1038503591  34.4568853333
H  31.8296182873  21.4184858259  34.8569229102
O  26.7865836981  33.6157199131  17.1625376810
H  26.0627459280  34.1095851862  17.5874145868
H  0.4064301498  35.5874756696  20.4788036227
O  36.9885036787  24.5794909489  0.2913704504
H  0.3074365133  25.0954995769  36.9195987542
H  36.3917463373  25.2453021227  0.6060523441
O  28.2048328124  22.5641115207  27.8544434233
H  27.8291377249  22.3458734022  28.7291951806
H  27.7348788219  21.9899915294  27.2029345128
O  7.7852859958  22.2259047336  0.0302997074
H  7.2406045828  21.8629126114  36.5835563489
H  25.0310993921  33.9826371204  10.8867096216
O  28.8593788721  5.7416391974  34.7040038733
H  28.2753488880  6.1385986367  34.0695111329
H  29.7719123637  6.0597959646  34.4803253666
O  28.3452930868  1.3006911611  11.3349648908
H  28.6202003580  0.8939623170  12.1970986614
H  29.0024402515  2.1111928986  11.2732381686
O  30.1407419146  3.1163905962  25.9171316737
H  29.8053306828  3.4891278530  26.7590413898
H  29.5468174811  3.2721222851  25.1406820726
O  2.9559624024  9.5976582248  0.4218134300
H  16.0307013283  35.8860951713  31.1723506947
H  2.3958653678  10.0868265588  37.0660703800
O  7.8051551818  24.8851512679  36.8124206101
H  7.7974573506  23.9975195945  37.2184586318
H  7.1594575947  24.7583059796  36.1045081430
O  34.5318326396  32.5871503058  24.9371328067
H  33.7482014549  32.6794331220  25.5545990175
H  34.1943696428  32.1275920972  24.1902755887
O  35.0438370013  34.1841939167  3.1422074529
H  34.0970699617  34.4979830868  3.2036800646
H  35.5991063902  34.6480421162  2.5148522304
O  28.3236009412  19.4860974270  6.2268529297
H  27.5514684856  19.8339146357  6.7223724939
H  28.2958239665  20.0771049136  5.4810956198
O  13.6553222043  32.7164972293  14.0099834527
H  34.8400393329  3.4283035991  17.8206402028
H  14.6116130769  32.4776331707  14.0010648083
O  31.4868038713  12.5658990902  4.9231788548
H  32.1305482145  13.1905169902  4.5325212452
H  30.6134538100  12.8807316167  4.7452332117
O  32.1568812386  3.1391501488  4.2887879059
H  31.2843388760  2.8241716837  3.9487019077
H  32.3431773316  2.7339100848  5.1579474079
O  24.3621183693  32.5688124516  15.0374078348
H  25.1433240417  32.7607971220  14.5103308270
H  13.5036819820  20.5787567785  5.5465450265
O  29.1737232175  27.8579747859  25.7997394405
H  29.6531940242  27.6082713228  26.6490836510
H  29.3106868491  27.1012088270  25.2502091178
O  2.5933194297  30.3180132275  27.5391301014
H  3.1777812452  30.5404226635  28.2525828278
H  2.9525448305  30.4128513396  26.6639509155
O  29.9835582741  24.4633341786  35.4980358959
H  30.0111927477  25.3842050614  35.3113918190
H  29.6713521064  23.9392605144  34.7216201257
O  27.8321768773  24.5796256410  32.0833171418
H  28.3780632363  25.1316957626  31.4588720977
H  15.1534554358  26.6957870260  35.8939577028
O  31.8112911395  31.7959114558  0.5617971261
H  32.7834289257  31.9948679192  0.5249694867
H  31.7360206625  31.7480851965  1.5388593456
O  5.5137334276  9.0053862738  1.7014735919
H  6.3213992315  9.5208013519  1.3288963122
H  2.1312264875  20.2516494464  1.0606752826
O  32.8227014305  8.3123296221  36.5226402971
H  33.0324405738  7.9094395952  0.0936142736
H  32.6943537253  9.2600365005  36.7373905074
O  30.1334143189  34.1100731501  11.9824449658
H  36.6765086417  18.0327491819  9.1715168483
H  30.8461130355  34.1424534314  11.3952282747
O  9.7088575433  29.2437311916  0.2641163491
H  9.9303198306  29.5613503535  1.1382406777
H  9.5680185739  30.0890138047  37.0744942814
O  18.7403019500  25.6178756650  20.3969999784
H  19.2350792534  25.0608660640  19.8122804882
H  19.4540490445  26.1631107094  20.8036801882
O  5.6846522475  4.4715851834  17.4997820509
H  6.2707104213  4.9213943446  18.1336487495
H  6.1737973071  4.5783915279  16.6859231923
O  28.6740009371  3.9864079629  28.2280039668
H  28.0973449671  3.2598680944  28.0830772486
H  12.5002498425  16.0083995939  24.3619415741
O  22.2863948795  35.8804050900  23.1606766121
H  22.8507290778  34.9133940274  23.1687308004
H  21.3579297994  35.7942100429  23.4640696168
O  28.4219676529  3.6444940290  6.7519356839
H  28.1199668343  3.9771571404  5.8833512870
H  28.1652819125  2.7429872712  6.6386062882
O  22.9756757641  6.9267988829  23.9629833458
H  22.3613779632  6.7366534385  24.6895897649
H  22.5975101318  6.4635025979  23.1384319983
O  26.5109536741  13.9910672033  1.6952164637
H  32.7668879900  24.8187573910  5.5364724668
H  26.0824698027  14.0760826231  0.8033365246
O  0.8666226889  35.5587545481  31.1110853014
H  0.0664698826  35.5648665823  31.7208804493
H  0.4404178969  35.9058096741  30.3217691057
O  8.5354656790  30.2906173483  19.6520934249
H  8.1041159760  29.7304774097  18.9938219190
H  8.3771445727  29.8848560821  20.5167910686
O  0.9091545574  25.8391684280  35.3099007079
H  0.7254541865  26.8265729260  35.3237303090
H  0.1510934627  25.5555897319  34.7818222469
O  28.2007514242  20.6149841968  3.2659245443
H  27.6783127904  21.4364911261  3.0728699458
H  27.6836870887  19.8922319753  2.9316058066
O  23.9710765878  24.7846353740  0.5068824528
H  23.1360762745  25.3421824159  0.4095663915
H  23.5893186057  23.8942174411  0.8294760723
O  16.7861667641  29.2616283849  25.6841944841
H  16.2551809543  28.8283055298  26.3801206149
H  16.3310739505  29.9802458544  25.2862774412
O  22.6619174780  27.8429725187  27.6433945108
H  21.8231637585  27.4210479095  27.5686783449
H  23.1726003970  27.0403287653  27.8719328084
O  16.2284306168  29.3962842085  7.5752235397
H  15.3325678570  29.3395023730  7.2741172753
H  16.0929576154  29.7011938778  8.4731144439
O  28.2789668700  4.9851996702  1.5070781401
H  27.7113917496  4.8650371460  0.7459839109
H  28.5858136335  5.9001134490  1.5030949726
O  11.8356271851  3.0035565894  17.3952127971
H  11.5894225611  3.1637080045  18.3212909974
H  11.0584586510  2.5450996923  17.0570786494
O  0.7237457575  31.2648613503  30.8537496136
H  0.5823240833  31.7442881560  31.7282669998
H  1.3247840679  30.5557743099  30.9954488675
O  2.1871450585  24.7992343077  7.8405841392
H  3.0657326615  25.2550265381  7.9244458662
H  1.9649138425  24.9305209729  6.9360235615
O  35.0504294152  36.4323346022  36.6551288168
H  34.6887410168  36.2185938485  35.7327423002
H  34.3581287792  36.9554731352  37.0972070941
O  9.5589333175  31.6085737075  29.0846477947
H  9.8360356463  31.7324878883  29.9802087653
H  8.5688440006  31.6533053133  29.2045049797
O  35.2313841213  19.2815140290  30.3851029830
H  34.6917597582  19.0804775546  29.6121842042
H  36.1477516138  19.5402660335  30.1186937309
O  8.4935968022  35.8154447019  18.5646446541
H  7.9807039624  35.0380978071  18.8166234872
H  8.0009859590  36.3574631282  17.9011485599
O  2.8213905243  0.0237558390  21.9921098941
H  2.5448759848  0.4139308176  22.8585737496
H  2.8370072362  0.7814005926  21.4085564862
O  23.6784790904  29.4734089654  11.1832241404
H  24.5966091651  29.5883869188  11.3957539005
H  23.3661108492  29.2079342892  12.0636528338
O  32.4960244530  5.9382318949  27.7318530796
H  32.0263773633  5.8422561039  28.5464277385
H  31.9226306004  6.5463263844  27.1553409835
O  31.1757206202  32.0014907736  21.6742955893
H  31.7552077713  32.1912564819  20.9232390838
H  30.5942611441  32.7924001384  21.7650907504
O  5.4214226755  11.3190576856  32.7815719932
H  5.2408868939  10.8014788351  33.5619363318
H  4.5375553014  11.3701088389  32.3125738602
O  0.6663768811  25.7175363263  26.8845879260
H  1.5748502596  25.8378964939  26.6186080395
H  0.4512120320  26.6762985773  26.8711292667
O  15.9722212004  1.7203253440  32.1439289591
H  16.2814988039  2.2215997215  31.4042436619
H  15.7908532111  0.8341157702  31.8047715044
O  15.8928461737  26.0561329343  7.5311261412
H  16.0939701065  25.2513832576  7.0528302281
H  14.9444707553  26.0524763923  7.7530817202
O  30.5213911546  33.1254141644  35.6128730738
H  30.8526852228  32.6471529473  36.3811187876
H  29.5770053109  33.1003293692  35.7164698068
O  25.6264960092  30.0269404904  26.8333841483
H  1.4523186925  1.6212359761  24.9724726390
H  29.3805773371  32.7310082584  31.6058406593
O  3.3693308070  31.1907154504  4.5539148067
H  3.9214081577  31.9392133295  4.1768851149
H  3.9796862045  30.7939306604  5.2023124520
O  8.3980059094  26.0332438809  33.1910516650
H  8.8909543261  25.4045885154  32.5937030749
H  7.5934876612  25.5354223606  33.4358804080
