4952
Lattice="37.2600 0.0 0.0 0.0 37.2600 0.0 0.0 0.0 37.2600" Properties=species:S:1:pos:R:3 pbc="T T T" Comment="RPA C-NNP cube3, final production frame: i =   160000, time =    80000.000, E =    -31581.8918053804"
Na  12.5188327956  0.3669883869  9.2344646861
Cl  4.1477866544  20.1665791012  27.4112329200
Na  17.2127443027  30.1484940167  3.1731505729
Cl  0.8188816379  34.3257072006  35.1339806738
Na  24.8326404806  21.6739913887  34.8281862204
Cl  13.9930946411  27.5934727259  33.8511388887
Na  31.7997353240  1.6811443581  15.4145448308
Cl  6.3288735213  11.1465823761  15.5338529193
Na  23.5201378314  34.0507585061  7.7570526463
Cl  5.0017739116  31.7209796430  7.9686861189
Na  8.4961707041  20.0708970625  23.3134169715
Cl  28.9003670763  12.0452500468  25.8036587463
Na  0.0268719922  0.8643077879  34.5077704059
Cl  6.4185055364  0.2512620323  14.2368238029
Na  19.8714042358  33.2142237966  36.6498537626
Cl  22.5923716393  15.7561178681  17.3332550312
Na  13.7063480647  3.8883339991  1.2361536542
Cl  29.7664095718  36.4489394418  19.6184977072
Na  19.8612809901  21.0360757762  31.9989092608
Cl  5.3668550696  7.0775812842  24.5231546063
Na  30.9464123553  33.0100401965  23.3402171911
Cl  11.7524452862  29.7208380049  0.2985873767
Na  16.3906382877  33.1149490431  13.4033903470
Cl  31.5580406462  20.3729704277  13.3476892944
Na  34.6609300814  15.2106794949  6.7483501533
Cl  0.7039961477  0.7849518805  37.1070245113
Na  5.0636289146  24.4408429281  20.7151612292
Cl  2.5716542890  27.0706769119  25.5029008912
Na  30.9498820774  29.7489510560  32.7800683092
Cl  17.2446776546  7.8242081676  36.4538409528
Na  33.4784806346  27.6775684910  16.1255439819
Cl  1.1354570990  7.5689231058  27.1297061090
Na  9.1292526089  3.9910904639  14.8127440912
Cl  33.3421935115  1.5496824476  19.2654566675
Na  26.3045237910  23.3984113071  1.1497933435
Cl  7.8859800756  0.6906960101  1.8036587560
Na  4.3096895839  7.3148433983  17.5723064158
Cl  21.5182221084  24.2399839836  4.6463599470
Na  0.7711096539  20.5929189841  2.8185841026
Cl  35.8793509400  21.9522035226  10.3213105938
Na  32.9237343913  35.4448393590  37.1745786718
Cl  10.7173496362  26.0081016445  22.0334057877
Na  29.6323215614  9.1098915088  29.6840464461
Cl  29.3726244729  24.2087202337  35.0344885204
Na  25.8962289289  7.2441204689  19.1703958342
Cl  25.9764073211  31.7055967254  23.0077625712
Na  13.2128777751  34.6144052719  8.0208501491
Cl  16.6579183755  17.9598584222  29.6869629490
Na  30.0331963198  32.0287060002  20.2121159377
Cl  30.3747429288  28.4984242390  17.0964418130
Na  31.7029012475  27.7367129346  1.5252893835
Cl  13.3717717436  21.8273565516  16.3325467304
Na  17.9771673612  4.1810176961  2.6555913535
Cl  19.6532702371  4.5782053815  24.8105574488
Na  6.6899663265  7.9962169321  26.6846423969
Cl  16.7843994327  5.9909851854  12.1499936597
Na  14.0456853413  2.7889271045  10.7697277501
Cl  17.8832811881  36.8614278726  1.9128518352
Na  33.0087482248  12.6110737798  33.8494662586
Cl  19.1774187426  32.1534977186  1.8294247883
Na  3.0545172144  7.2321728943  20.9955536743
Cl  25.2662825387  32.6151601555  12.4709904837
Na  12.6005683754  3.9812661072  15.3371040488
Cl  35.6943389057  32.0446575409  1.9286806071
Na  36.0442928253  37.0501361506  21.9033076150
Cl  1.0442508946  11.0223063448  18.7109299726
Na  2.0590803273  15.4015610762  23.1696962332
Cl  35.2895727704  22.8848801406  36.0109018770
Na  20.8180308791  23.0152100265  8.7458856810
Cl  27.8237963271  24.5735407102  5.1264462201
Na  17.4957991450  22.5845805062  29.5667759209
Cl  15.9863991305  35.6037793095  14.0282745496
Na  21.5647692278  35.9702198026  9.6558171003
Cl  22.2514949094  21.2849395183  30.5690443634
Na  11.1937163884  15.9497823499  14.0389580385
Cl  1.3140649672  16.1989212719  1.5249794154
Na  33.4473129880  28.9925758177  31.0996244784
Cl  34.5045130289  30.6313436011  19.8351077453
Na  35.3105192645  0.5233425563  37.0408302233
Cl  32.0098669555  10.2764990764  2.7182850808
Na  24.9018586812  21.4548887891  3.3799132160
Cl  4.9482080353  10.8750763598  20.9200639577
Na  29.9960090575  25.8356266403  15.7965345540
Cl  15.4968776668  22.0514412917  26.7117384943
Na  24.4938299238  9.4284118482  20.8583287888
Cl  28.8729543790  0.2179599581  23.8551363160
Na  21.0901333128  25.0696068287  23.7452758084
Cl  24.5102382860  21.1363362660  0.3335469619
Na  33.5461237134  35.5324114608  23.3765923511
Cl  21.2255146844  1.6839598762  33.9547921200
Na  20.0291601047  2.2023711559  21.6823571051
Cl  22.9111690883  6.0270584433  16.3028153413
Na  1.5492261923  35.0018561666  2.9780194791
Cl  9.2723869423  3.5825777380  10.6010113576
Na  28.7540552787  17.5956468549  8.4916821927
Cl  19.0613545308  1.0858879806  6.1101543578
Na  36.7671007219  23.0873578726  25.9447751431
Cl  12.3391545999  17.3599309361  22.4472566168
Na  11.1393643071  34.9012027931  2.9331895212
Cl  31.5181286355  21.2153909259  27.1424452606
Na  12.7840792608  20.6753726960  23.0139406590
Cl  31.6020143075  34.9882263197  32.7353010531
Na  2.3443815076  36.3033196089  36.1567791123
Cl  1.0834339435  0.5960172439  25.6347462345
Na  14.3899218868  34.8380447501  37.2367556404
Cl  26.9693138227  9.2245166860  15.5909522133
Na  31.7900458064  14.0811828464  13.9339568478
Cl  4.5014052636  0.1333846234  5.9867233708
Na  16.4919983516  32.8437684207  1.3832789865
Cl  32.6851703565  3.5939374048  34.5834540562
Na  36.9302845371  15.4091629138  29.5184535090
Cl  13.1690644099  33.9156203070  4.2451088482
Na  12.3036381732  29.9738734755  30.2067070392
Cl  20.5745038528  30.4716251563  6.9087433448
Na  1.4993676984  20.6573097702  26.5442864143
Cl  21.1139225677  35.9296114332  18.5854523694
H  34.3097597319  11.8898928737  25.7204357410
H  33.9699248577  12.2724513138  24.3141262312
H  17.6712297352  9.8402194471  29.8614922951
O  35.3120726785  11.6851184213  33.1910214157
H  35.9823758793  10.9883965217  33.4661566518
H  35.9121875241  12.2484872132  32.6531628606
O  3.6620959153  8.2418859887  9.4537322146
H  4.6214071520  8.3842802078  9.5422011303
H  10.1134053551  1.0793083248  8.5906955736
O  14.7831747286  29.0105698335  36.4279102007
H  14.3496750859  28.6686208177  35.6277838917
H  14.0094235451  29.2731020764  36.8808584344
O  34.1016467531  19.3049881423  37.2509652661
H  33.4727740147  20.0316620944  0.1845927570
H  34.6220979609  19.2489057013  0.8171764680
O  4.4718066805  2.7158770136  9.7482989948
H  5.3569181105  2.6046197855  9.4025061292
H  31.9155584166  36.9432909165  13.0263623146
O  33.1927725082  7.3017531894  11.7906356123
H  34.0586425006  6.9039789723  11.6548595576
H  33.1698314620  8.0541279531  11.1874138988
O  11.3782155029  10.4000948151  29.3035938681
H  10.6216172117  11.0129578349  29.0268834897
H  11.4817442253  10.6551802489  30.2065024435
O  25.2051804589  34.5684421518  2.6737307679
H  24.8390698777  35.0831409676  1.9133363262
H  24.4002800293  34.2554299621  3.1059335978
O  3.8240329234  16.5270355247  36.7731405957
H  1.5432856450  1.8095741296  15.1587601936
H  3.9553296187  15.9294419718  36.0380901158
O  14.6924409860  5.2310836616  9.7790819292
H  15.2463057500  5.7622512962  10.3630871820
H  14.4680188001  5.7609785848  8.9638438193
O  17.8579580454  19.5992778724  7.3517365845
H  18.3341702178  18.7508683290  7.3760710741
H  17.2595991676  19.5687677982  6.5310088645
O  36.3860167326  4.7861776983  36.5593225530
H  35.4783494311  5.1467220753  36.6869764479
H  36.6815504701  4.5283613587  0.1931516933
O  9.1935503012  19.9789302758  36.2504242918
H  8.3404815544  20.3534726630  35.9136862089
H  9.9484124680  20.4792498809  35.7430558693
O  12.0317348301  33.7215052920  15.1093363676
H  14.8506224033  15.8521872868  9.6932492751
H  12.7753150491  34.1390431502  15.5519444763
O  5.5651554269  35.2095108853  10.6538607478
H  4.6795456307  34.9412075311  10.3708079773
H  5.9273162714  35.8247681941  9.9973442642
O  8.2793784108  34.2171635878  10.6691636376
H  8.9494270898  34.9271593459  10.8123601579
H  7.4002563531  34.5996717185  10.5086638415
O  27.2668280936  10.2300052815  3.7430764702
H  27.2719315535  10.8677676265  2.9570603322
H  27.8739444147  9.5276850114  3.3122168683
O  33.1986576924  10.4410762763  34.9728288797
H  33.3884132005  9.6917516980  34.3923079953
H  1.9915671246  29.9535424036  6.0304189646
O  13.1345702248  11.5233915856  11.2182348757
H  13.0621332542  12.3426498907  10.7177663202
H  12.7587298014  11.7169391155  12.0670596472
O  11.0970719332  7.2243136862  4.0560635612
H  10.4492917563  7.2718334723  4.8145030648
H  11.7332691726  7.9125071964  4.2851044544
O  3.4060143497  4.3736357679  1.3742959026
H  3.1236286555  3.4504964998  1.6543593719
H  2.7400641453  4.6115014304  0.6935769086
O  6.9725717504  2.6453400583  37.0236741542
H  6.9651210543  1.8477444225  0.3118300525
H  18.9049052836  35.6211503564  18.5506121173
O  32.6845178821  16.0398856448  11.5722695834
H  33.0655285752  16.5174580426  12.3943607591
H  33.5138862577  15.9457094842  11.0408267613
O  9.7645098709  26.7738077556  14.6594552869
H  9.5216023007  27.4816710807  13.9690333721
H  7.8376811113  3.8233866303  5.5197243263
O  3.2155765512  36.0300086034  1.2040801381
H  4.2104510401  36.0802947790  0.9221371612
H  3.0403263631  36.9444892012  1.5678066996
O  33.2057753179  6.8879837919  3.2664407231
H  25.3639126065  5.8269361727  3.0886976978
H  33.0601075975  6.9660157394  4.2324070087
O  10.3450191647  6.7400614591  1.2591967531
H  10.4668786694  6.9117950121  2.2440666950
H  11.1495547828  6.3987217865  0.8135410602
O  12.8366355583  2.8840060319  30.0895063690
H  13.1867535884  2.9067255041  29.1672440842
H  13.3247918605  3.4787191558  30.6277664061
O  6.3280618686  17.4526904541  1.1872081736
H  5.7445473662  16.9258286877  0.5597604496
H  5.8514613114  18.2649777722  1.4120706890
O  9.4800611389  9.9672351633  32.8032599995
H  9.4979773947  9.0788956176  32.3639169590
H  33.9825723648  35.2533380496  30.0674465592
O  30.3228740762  9.9200847503  12.0484662542
H  31.2798299834  9.9142135134  11.7317507606
H  30.1597338419  10.8623957160  12.2218520353
O  3.3676432456  17.1426543020  21.8997281214
H  2.8137970817  17.7343624042  21.4655646765
H  4.2429230071  17.4417706675  21.5254002187
O  5.8072746220  34.7412982418  13.5362181932
H  5.7651973536  34.7905623101  12.5553058027
H  6.1249721066  35.6452583727  13.6018026536
O  1.0882676709  12.3540293436  7.4952518966
H  28.8539707955  11.9371938308  7.1473975713
H  1.2203793099  11.6150208371  6.8778684953
O  3.6050357328  32.7406252995  27.6907383866
H  4.4373659599  32.5896182864  27.1678184918
H  2.9688734448  32.2193231669  27.2191377686
O  32.9626005280  35.9529616152  25.9615524855
H  33.5468891589  35.4119749264  26.6018071705
H  33.0955418759  36.8982659290  26.1622985546
O  0.6071550682  23.7017488255  21.6502107133
H  0.6802828837  22.8342534046  22.1239800139
H  1.5690030788  24.0748589598  21.8575437817
O  17.1353828724  31.4008986952  17.7235304718
H  16.8669583135  31.9253413531  18.5213973020
H  17.1239184887  32.0758808445  17.0226234908
O  13.3875220606  10.0476586834  14.9347874306
H  13.2938875884  10.3390220112  15.8670394574
H  14.2353040454  9.6468046972  14.6593353218
O  32.1256730728  37.1150310313  1.5885490146
H  32.1069401921  0.7904872455  1.3146380268
H  32.4446138919  37.2208364541  2.4745965727
O  34.3426700727  10.6682465907  0.4776191386
H  33.9224438636  10.4207306666  36.8694141877
H  33.6436772300  10.8839565400  1.1219521533
O  5.8660327535  5.5750842376  11.9260433136
H  6.6506092229  6.1195265392  11.7313281042
H  6.1469179840  4.8580110935  12.4860610153
O  6.1742266959  20.7749267635  35.4183691802
H  6.1335218018  21.6496608161  35.8219118189
H  5.2468792090  20.4580901353  35.3431143026
O  3.1442537002  13.8289265715  13.3198953258
H  2.4668171526  13.2067575735  13.7535671526
H  3.8714195983  13.1740719530  13.1410909061
O  36.7414692571  10.1642472287  23.8887972718
H  0.2349252232  9.7048525124  23.4278496473
H  36.3900381753  9.5137481004  24.5053115077
O  3.7468675287  5.3534577845  10.0319059467
H  4.3341159745  5.5378944106  10.7523407428
H  4.0103479540  4.4702627667  9.8135753329
O  6.8056258245  2.3047393709  8.3681570237
H  7.6863542774  2.4739609353  8.7199714083
H  6.8883780792  2.7026554205  7.4342037433
O  3.7178705940  5.4088348238  19.5255952131
H  4.2111822679  4.7539146915  20.0475026122
H  3.2392832404  4.9124821696  18.8513717793
O  0.1634170969  10.7118416937  0.7587367013
H  36.5651872159  10.4066256877  0.5826091878
H  0.2431517571  10.5363891754  1.7386922024
O  4.4846701671  32.9645028381  15.5640984853
H  3.7385800483  33.3384111983  16.0667785846
H  4.9596063856  33.6702742594  15.0510136220
O  32.9043101201  9.7148896199  10.3802772882
H  33.6490573279  9.6368108207  9.7809201806
H  32.9931079768  10.6223823213  10.6761545129
O  32.0421056680  17.5895149613  30.0217916635
H  32.5069384178  16.7482881469  30.0482046746
H  31.4439151047  17.6926342714  29.2824472957
O  13.1317753727  3.9989121802  12.6628807927
H  13.4929068822  4.8777984450  12.8935089528
H  12.2239387566  4.2666619185  12.5722974094
O  34.7329145248  2.7624897624  7.0502717539
H  33.9551410007  3.3470113514  7.1777949605
H  35.4368140687  3.1820908405  7.4656833377
O  6.6741143616  10.8541512145  29.0786895620
H  7.1402154673  11.2930735148  29.8204099628
H  7.3192292151  10.4066818350  28.6084161121
O  3.3843348372  2.6259349988  7.2416826124
H  3.7297931266  1.8380010169  6.8482343072
H  3.4910683574  2.5280400542  8.1934891235
H  31.2164670726  20.5026277530  36.1810165781
H  27.4823941864  10.5216097014  10.3918059648
O  4.1670396675  10.6142227501  6.8244246348
H  4.5176770234  11.5099277051  6.6397796545
H  3.6604229483  10.6970622442  7.6723889381
O  17.4815214046  4.3505707669  15.1476555421
H  17.1159492567  4.8310937706  14.4232732734
H  17.2373479626  4.9369531873  15.9088017257
O  32.7001558549  8.9123950455  18.0674186330
O  4.7965370592  21.1788004426  24.0718703000
H  5.6301565528  20.6651312736  23.9704674724
O  7.2577879157  33.7605461892  19.6230866639
H  6.9734362997  34.6461807996  19.3305384173
H  6.7122595001  33.2044509711  19.0286601402
O  11.5198888413  29.1322673500  17.2524480209
H  11.5340064846  28.2274733270  16.9707730239
H  3.9574620423  3.8432150293  21.9041893885
O  13.6059807080  1.1683052875  18.9183575957
H  14.2950909520  1.2051761566  18.1879413030
H  13.9651954815  1.7122952193  19.6463505804
O  20.0058456463  26.1246575524  21.6430125134
H  20.6106747132  26.6540015922  21.0845818325
H  19.4343814688  26.7991908229  22.0353459646
O  17.9976110830  24.9423460149  18.3660104336
H  18.2460560079  25.9021358273  18.3605575294
H  6.6681833715  1.2839200275  27.1179386296
O  33.8762023729  0.4999343186  22.4597658919
H  33.2932816339  0.9875109298  23.0268350241
H  33.6681730497  0.8197484205  21.5537568701
O  9.7584979151  6.9551085143  25.3718279506
H  10.4740384290  7.5819112802  25.4871861575
H  9.5666194877  6.6269966732  26.2584240671
O  34.7764561599  32.9549020335  17.7347766954
H  34.7400939025  32.5335048568  16.8471825855
H  34.5125111502  32.3008243927  18.4096558655
O  31.7794543231  24.8123253198  14.5569766502
H  18.3233286625  19.5948232777  17.6169379230
H  31.9318511551  23.9631251066  14.9934617225
O  35.1394097020  0.5470197611  29.0019431046
H  35.0597325548  36.8715128788  29.3479757340
H  34.5337785592  0.9812860173  29.6111951031
O  10.4725576908  3.1016668590  28.5604508275
H  11.2655475935  2.8099250305  29.0139798001
H  10.5995311753  2.8790649534  27.5492926482
O  10.8471184648  6.6853681286  30.6654153349
H  9.8988848945  6.8585352750  30.4432552433
H  11.2623574990  6.7299349316  29.7996779159
O  29.7986809191  36.2027308580  13.1180353001
H  29.5322513070  35.3424823636  13.5094314779
H  29.7654761273  36.8301945250  13.8698663010
O  6.7117889684  4.4607194560  31.2459605064
H  4.3603704500  7.8840171100  30.8317762134
H  7.0744130868  5.3168554818  30.9502242865
O  7.7946684251  6.6105512011  29.9334948656
H  7.2286647393  7.2817614451  30.2963045128
H  7.5202577547  6.3212860146  29.0834923433
O  11.6184026165  9.2013321691  24.9644751266
H  11.3013707182  9.9101584472  24.2641109802
H  12.0151360028  9.6983765692  25.6538304235
O  30.8242324251  35.5190181942  22.4344895883
H  30.5752495378  36.0880436420  23.1673814277
H  30.5690299920  36.0519257184  21.6366410672
O  1.5311848263  30.6767468903  6.4598131159
H  0.6143913730  30.4688440985  6.3215924610
H  34.8965779908  1.3159501329  27.3551766999
O  10.8666209072  0.3812102717  19.3644186380
H  10.5587886225  37.0019716221  18.6480684107
H  11.7893299140  0.5851780206  19.1359319156
O  16.2808850430  2.9600835584  11.3653767939
H  16.5811997293  3.8158653325  11.6712774485
H  16.7323458177  2.4388125797  12.0276760086
O  5.2468569159  32.3639643050  23.2420697484
H  5.5241298026  32.1727222432  24.1396472212
H  5.7598857587  33.1248375198  22.9738337952
O  33.0224173007  25.6308159483  20.4016167861
H  32.7117582921  24.7671901589  20.0170049927
H  11.5586367793  33.0122601524  27.5867656808
O  30.3218672804  2.8838887692  27.2360449973
H  30.1266075605  3.5893572316  27.8996705394
H  30.9754630917  3.1790364138  26.5726711698
O  33.1168448999  0.2386998916  36.0528744388
H  33.1329964116  0.1330474597  35.1162263017
H  10.1137112813  27.2598229164  15.4329888700
O  18.5778420690  17.3274003304  35.6719690572
H  18.5508238041  16.4892588903  35.1920588383
H  17.7989924898  17.8415132032  35.4582651324
O  25.2439316746  6.2557951838  3.9571431131
H  6.6157631268  33.7829220650  33.6540355416
H  24.4041734451  6.0313976305  4.3829294512
O  0.6069146769  37.0549112719  6.8281452796
H  0.5649650269  0.7395403867  6.4252518190
H  1.0939631503  36.4656104204  6.1875805946
O  1.8620598348  35.9757349994  12.6997915122
H  2.4864767229  35.2941027158  12.4681675694
H  0.9735118898  35.5873007501  12.5077399073
O  1.5964613577  8.5655145358  22.3525658204
H  2.0228062359  8.4068937668  23.2572731556
H  1.7733128634  9.4944261861  22.1626336746
O  15.9353331343  35.4639539786  10.8744155926
H  16.3856882937  36.1892786963  10.4040003234
H  1.0136796044  1.2353387873  22.1930027487
O  26.3959743429  30.9077188876  14.6869494866
H  26.4979994627  31.7069592655  15.3122972178
H  26.0290281162  31.3593794069  13.8713363646
O  9.6121677503  12.6592958719  27.9694723512
H  8.8832389824  12.8472942220  28.5684858165
H  10.0828538696  13.4736522886  27.9729466280
O  14.3267502247  19.8170740707  24.3084020155
H  14.8607478803  19.0673508911  24.5965895616
H  14.9190113061  20.5315953434  24.6552975654
O  12.3683890976  33.7883365096  12.0227347012
H  19.7639002159  35.6218375438  2.3647722407
H  13.1116707749  33.1654838140  12.0860953271
O  3.3581817541  22.7329648782  9.4975017414
H  2.7065828803  23.1171674373  10.1322681946
H  3.2717856387  21.7845914370  9.6336434349
O  12.4654197444  11.8427985864  4.5577555447
H  12.1328077483  11.9430384426  5.4476374761
H  11.7509311888  12.1165291984  3.9811744359
O  15.4136316390  9.2400429568  22.9869306481
H  15.1793198070  10.0593278092  22.4730137557
H  15.3484809334  9.4812241659  23.9278422031
O  8.1147782800  4.0951471943  26.0003919672
H  7.9148866254  4.3956354843  25.0520064980
H  8.1153414491  3.1131562731  26.0196886764
O  11.0622610674  10.0703651180  9.9724894566
H  10.8115116137  9.3747385272  10.5918474984
H  11.8277165452  10.5268471507  10.2949905818
O  5.3718895586  29.9211310552  5.3505476028
H  6.2297476838  29.4422978874  5.6683234515
H  5.2150946983  30.4884897399  6.1359205212
O  5.5214138863  16.0619139714  32.0765457221
H  5.0199618260  16.8128537480  31.7275617291
H  6.4514632367  16.4590936728  32.0372025867
O  9.9651885239  31.7784985043  25.8887870186
H  9.3473568000  31.3074084984  25.3187468851
H  9.4518942824  32.5960337028  26.1129364664
O  9.4920252367  8.1781591687  20.5429359133
H  9.3063341519  9.1002053368  20.2587776129
H  9.2181617989  8.1282253602  21.5317684045
O  33.8517392751  1.0590791393  16.3049990016
H  33.7623481867  1.3155991079  17.2446776842
H  34.1063359390  0.1247338889  16.3119884582
O  30.0306478406  9.6880557305  15.1308322828
H  30.4056371108  9.4903461894  14.2995726626
H  29.0712831586  9.6499063230  14.9565165864
O  8.9212716298  11.9816522200  25.2771216811
H  9.7546200583  11.6992085625  24.7699104391
H  9.3540507892  12.2143361231  26.0988767009
O  29.0026951231  35.5259342789  16.5296307318
H  29.0555414552  35.6344882031  17.5150785273
H  28.0191968842  35.6085961041  16.4737931736
O  6.9653404055  26.9547696960  11.8210444721
H  6.6979789604  26.5011574800  11.0115651703
H  6.1458683053  26.8437888056  12.3730375084
O  11.3076689585  36.3291379674  28.1555572012
H  11.4983889001  35.3381694011  27.9709996951
H  11.0461508084  36.7560256853  27.3420954667
O  9.5042073805  33.2831534239  16.1858218437
H  9.1299245251  33.0606784426  15.2719386395
H  10.4246930186  33.5780929136  16.0429484855
O  3.4221027014  34.3275049179  19.8493252954
H  3.8159830974  33.4214378880  20.0785762812
H  4.2317563801  34.8803391894  19.6980407298
O  2.2926988831  33.9200541124  17.3883640914
H  2.7576442662  34.0671686933  18.2416803796
H  2.1370820182  34.8006187748  17.0127701909
O  13.2993269349  27.3449088327  30.2945500618
H  12.6432196785  26.7313836362  29.9514222136
H  13.4614787687  27.0809152587  31.2248449321
O  3.2744559960  33.7809857654  24.5408892579
H  3.9928862462  33.3822166112  23.9986198201
H  2.4816122069  33.2732336541  24.3132248713
O  29.2758051898  1.9444574416  21.1948216559
H  28.9269519792  1.3063660861  21.8374747831
H  29.4766920832  1.4100574091  20.4197940907
O  36.7752504389  19.0364916809  1.3692218184
H  0.0404545900  19.3344681174  0.6142888297
H  0.0786326371  18.3228271348  1.7033308578
O  17.4463180275  33.4157565231  9.4867593628
H  18.0662482608  33.7325439272  8.8376333896
H  17.1920369749  34.1737644752  9.9998053754
O  26.7638212710  12.8841494298  23.2001167186
H  27.3266175836  12.5482162274  23.9245930244
H  26.2841760844  13.6125975344  23.6799709867
O  1.3822212231  20.1023443662  28.7384730859
H  26.1753047379  11.0769782950  10.6515578774
H  8.3347865933  11.2615734620  32.0527772065
O  8.3164567421  9.2780700782  12.7344925402
H  7.6198262455  8.6928297086  13.0382507339
H  8.2246510938  9.6419767209  11.8790065238
O  24.9825696690  3.0826604934  16.7040904881
H  24.2770661140  2.5886683153  17.2278387105
H  24.7084497208  3.9667999801  16.5348721655
O  17.7975223149  33.7592824138  15.9602485924
H  26.4067512427  5.4148526886  29.2166858624
H  27.9497733023  5.6346731930  29.1280987787
O  18.0806317848  10.7300089724  29.7941344278
H  17.6330094263  11.2178902462  30.4688918484
H  4.6029202557  21.0498266517  25.0215641141
O  13.0485692845  11.0407622438  26.9785683652
H  13.4863575684  11.6228771757  26.3477141585
H  12.6656328983  11.6724039600  27.6208276764
O  7.2099461801  12.2496594798  35.2012008401
H  7.0345621976  12.3075389399  36.1971864432
H  13.3363033334  18.1909088143  33.3614608491
O  10.5040857214  21.7014251101  27.6030734988
H  11.4843380175  21.4610616632  27.6311193922
H  10.4937056337  22.5013662811  27.0913615208
O  11.8302638365  11.1061945009  31.8819293658
H  12.3548432489  11.8486346496  32.2815552431
H  10.9046838691  11.3080749063  32.1716812920
O  35.4949113195  12.8389733577  36.6766533301
H  35.1623956971  12.0004063104  36.9902769384
H  6.0203057912  6.4106292884  36.1446661079
O  2.0894108169  30.8157700546  26.5416675708
H  1.6459818390  31.2373491514  25.7954243380
H  2.8255791292  30.3665650935  26.1429939962
O  8.3490739695  21.8606311864  3.9031901440
H  8.3251340728  21.1730162747  4.6200750321
H  7.5487078673  21.8212392837  3.3746416433
O  32.5452207090  3.2020238847  12.6088550795
H  32.4680034128  2.2145908878  12.5064815867
H  32.0982025896  3.5719660068  11.8228970681
O  0.7689739534  6.1435423847  21.0147641468
H  0.3947622079  6.6817971311  20.2907876501
O  13.1560497063  13.5181366301  28.9439471663
H  12.5183051180  13.0950848426  29.5190748967
H  13.9861808377  13.3397183349  29.4552997625
O  2.3526780921  22.8883661807  34.7775140149
H  2.4456911296  22.4125325336  33.9239004417
H  1.4427432905  23.2259684474  34.6377852246
O  33.0746635053  9.4752722460  6.5640134045
H  32.2264072004  9.8507616114  6.9189477741
H  33.6568903312  9.4155196410  7.3302966203
O  4.5408164703  29.7774939293  31.7836406415
H  4.4402548007  30.5741267039  31.2314151054
H  4.1633258508  30.0503025778  32.5998097542
O  21.5175627145  33.7767823236  8.8976106104
H  36.3345664906  25.1541359710  0.6476154484
H  21.5234213203  33.0542998918  9.5383530542
O  35.6527099488  32.7855874515  35.6251410354
H  35.8585042348  32.6041509020  36.5307737889
H  36.4505508519  33.2620122590  35.3368318420
O  0.2797584574  3.5811452076  1.4929750215
H  37.1712038169  3.6275076252  2.4625735380
H  0.4144790961  2.6499648546  1.3278567311
O  35.7269181761  36.3291796295  35.1569270014
H  36.4051611534  35.7012263175  35.4265568461
H  34.8758540718  35.7860187654  35.0802441178
O  35.0874947655  1.9666708763  26.6937400964
H  35.7952922740  1.6650496009  26.1713182850
H  32.2901926628  10.2288536783  35.2512032464
O  16.1930473274  26.9483647147  0.1031424521
H  15.3814591910  27.4816059044  37.2358270543
H  15.9539153591  26.0356304391  0.3898073822
O  8.8484399883  12.6396177273  5.4115641527
H  8.8581413096  12.5174307103  6.4271440447
H  9.5109174484  13.3693468331  5.2495211209
O  9.4104831353  19.2609745376  25.7682384267
H  8.7790133693  19.1746876657  26.5948922277
H  9.5213733843  20.2031032395  25.7344459034
O  7.5753988448  36.2049643294  34.4117653731
H  8.1696142509  35.9886967171  35.1343267719
H  19.5500506181  10.7789671533  7.3720663330
O  32.8588030107  29.2269973742  33.8759791597
H  33.5028696319  29.8851313215  34.0955024412
H  33.4688192103  28.4563595833  34.0727408756
O  7.1470553388  3.3074827628  5.9821384360
H  6.7213065446  2.7903435593  5.3109021676
H  32.8017761841  1.1012238809  36.3047081112
O  20.6869029118  16.0085213436  34.1580734227
H  20.5570713073  15.1047039148  33.9832316787
H  21.5714236267  16.2040489486  33.7273755672
O  6.3498116069  33.3989081922  34.4801845453
H  32.5386580554  7.4792450380  2.8747376645
H  5.3398987489  33.5074527978  34.5583967241
O  6.9602475961  33.8743543358  5.0967122493
H  7.0996159122  34.7870685794  4.7268594636
H  6.4857979056  33.9125176705  5.9879787042
H  27.3441382888  3.5428463967  21.8175440196
O  32.7453160495  11.8032176493  31.8071247687
H  31.9706267377  11.2921036451  31.5861297633
H  33.4623477981  11.2032902387  32.0081859965
O  5.1596761434  12.6290132660  27.3931971215
H  5.7913636816  12.0362092458  27.7910269347
H  5.6084528323  12.8458772995  26.5130363064
O  6.4319975868  8.2733754644  9.5412371306
H  5.0116028297  1.3081342611  28.8602117291
H  6.4056672388  8.1212435739  8.5982561381
O  11.2838503079  4.9662810721  24.1585863580
H  12.1093273818  5.4619782551  23.7544370640
H  10.7864511191  5.7199204229  24.5337220653
O  26.7781642333  35.1377944702  25.4393011973
H  27.2375763753  35.8221687281  24.9753931891
H  25.8481950615  35.1131651850  25.1646800300
O  0.6485983697  8.2673660270  30.7908352740
H  1.2144571205  7.7124765879  31.3017485286
H  0.1036189589  7.6459347211  30.2195768469
O  16.8957973988  12.6024683064  19.5472556820
H  16.8605770963  13.5139268257  19.7657592020
H  17.7701825813  12.2625572216  19.5715917438
O  4.9643534769  2.9409811635  15.5454120413
H  5.1700207735  3.3811893406  16.3626815827
H  5.3631483190  2.0801308034  15.6495714235
O  1.3308529905  13.3545900831  35.6359871992
H  1.9107540436  13.7874240021  36.3148165987
H  1.7588444453  12.5227764057  35.3420525021
O  11.2276490936  8.0730552379  14.0890814689
H  12.0177306287  8.6152020338  14.4399541965
H  10.4171406810  8.5716728203  14.2095713923
O  15.3407094679  20.3083713395  1.6544519754
H  15.7577802201  20.7246911103  0.9169433745
H  14.8921182082  19.4728032656  1.3693328349
O  0.7080153881  27.9925272474  28.2506546046
H  0.9484390625  28.0308132157  27.3647695351
H  0.9980078276  28.7230407177  28.7673528078
O  4.6573937106  15.0096818052  34.5670757066
H  4.4120469632  14.2714403285  34.0147371761
H  5.0530622447  15.5824479050  33.8860208586
O  8.0918274504  6.7284287584  11.0329481838
H  8.3797219107  5.9156477526  10.5602583760
H  8.8803166785  7.1610138037  11.4405688513
O  36.0062998583  30.4549664314  26.5561139448
H  35.0852577910  30.2606844576  26.3466630825
H  35.9338055310  31.0891558525  27.2820565439
O  17.0569181534  15.9606367888  23.4741641966
H  17.8883964204  15.4798289332  23.3351912303
H  16.6879875128  16.0819528997  22.5984209390
O  9.6396678408  35.4853937787  18.0228307160
H  9.0405647166  35.2751174561  18.7979049502
H  9.5085814436  34.7249329530  17.3609475431
O  7.5540675009  6.1894301047  7.4480394551
H  7.1008213377  5.4577163580  6.9458360237
H  8.3979216727  5.7265002864  7.7126737170
O  13.8215410347  15.9320130298  17.1853592677
H  14.7629624059  16.2118772244  17.2748340921
H  13.6632113058  15.9571434259  16.2070725352
O  16.4773400643  34.6731162049  30.1484204997
H  16.4764176391  34.9670383737  31.0758694087
H  16.1634198977  35.4184089958  29.6460733735
O  12.1528674590  2.7218523107  9.1521244588
H  11.4121031464  3.1167001381  9.6201603599
H  12.1669639882  3.0017095218  8.1708107932
O  0.2595373244  9.6331533282  13.4470157822
H  36.8874216836  8.9228993731  13.6887148995
H  37.1370402850  10.0917905014  12.6868477208
O  8.2552373201  8.4494643583  0.3288437979
H  9.0277341209  7.9122272173  0.6341608470
H  7.6397232942  7.6971443772  0.2119993122
O  5.9033771493  22.1407746025  19.0721191325
H  6.8745058496  22.2085028811  18.8579592718
H  5.4233829278  22.7181175203  18.3935576385
O  1.9606725575  5.7737034365  29.8674518809
H  1.1787519540  5.1031429583  29.8950949719
H  1.7930242960  6.2444237505  29.0161796134
O  0.4819625425  1.4586536598  28.6112789485
H  0.8099450683  1.1941527442  27.7695074537
H  36.8765864430  1.0907522391  28.5968255871
O  37.0926473978  3.9276008138  29.5491836137
H  0.0547029411  3.5288536766  30.4427349591
H  37.0752458119  3.1466965536  28.9939687994
O  15.4968086057  34.7823311218  2.0466472371
H  8.7169299516  12.5252792490  31.2747987018
H  31.4124489308  22.0428168419  36.7896004796
O  20.3873152624  9.2170579942  36.8250003586
H  19.4791877172  8.7672179219  36.8864176808
H  20.8994654035  8.8684247264  0.3669956490
H  3.0848005251  15.9442858336  7.0960547063
H  2.7690844544  16.2676308483  8.6582329451
O  10.3665207932  15.8892182389  16.6160978966
H  9.4818580411  16.1371964482  16.9091314529
H  29.7738528472  28.3283970635  23.7095535659
O  5.4522795094  10.0478442522  4.1262357652
H  5.0648328606  9.4432265628  4.7580625740
H  6.4203400483  9.9571135063  4.2312218143
O  10.1551625860  0.2055877127  9.0250370344
H  9.2969947422  37.0968776816  8.8461565162
H  2.1699256067  5.7838524929  7.3637126190
O  1.0904161458  15.7333894086  27.6105768254
H  1.9163105300  16.1984706007  27.8012906073
H  1.4984010679  14.8573992865  27.3494685657
O  10.8730276131  20.4816936768  9.4915668285
H  11.5359279956  20.6420625565  8.7978962806
H  10.7277838369  19.5146667815  9.4318991438
O  7.4525964818  12.3450262382  8.4215238877
H  6.6809288912  12.8255731280  8.8067930026
H  33.3109605323  11.5120407962  20.9655997480
O  1.9277989808  15.5314778499  4.4020203889
H  1.7577126038  15.5450809030  3.4525039668
H  1.4529335842  14.7073115549  4.6778842538
O  6.3325997021  31.7876719140  1.4110017606
H  5.9916149242  31.8211946690  2.3097046617
H  7.2042487210  31.4113726964  1.5245699814
O  3.8485288548  18.9047265220  35.4595411747
H  4.2012995203  18.6054863386  34.6399529342
H  3.7725962344  18.1144038394  36.0087947581
O  34.3642211222  4.4758105215  31.9279501518
H  5.0521166701  16.6021323203  3.0744480471
H  34.1655388407  3.7882616585  31.2748351366
O  15.6884810390  7.5315312169  5.1919552075
H  16.4172425109  7.3553947577  4.5716070027
H  15.9607165466  8.4674821426  5.5310622866
O  2.0961667407  36.2170576666  15.7272666451
H  2.0710278693  35.9181010568  14.7823704208
H  1.6337742787  37.1188021109  15.7132243146
O  35.7095984863  16.0510529641  31.6377760738
H  35.9288880919  15.4983623873  32.3952935982
H  35.8018727411  16.9916880886  31.8821572498
O  0.4284740905  22.9412134889  1.8345335378
H  0.4679412439  23.5956414118  2.5794429819
H  36.7183328839  22.9735127378  1.7349502020
O  14.5356329063  15.7906758181  10.6172232482
H  14.8392620494  14.9108257597  10.9054969711
O  2.0957619029  6.8714327444  17.2812761635
H  1.3956590395  7.3245978076  17.8440426649
H  1.5202383087  6.1835232826  16.9164132594
O  30.8756067841  12.2582081302  15.6290188055
H  30.4198417996  11.4108076990  15.3950118314
H  30.2079190740  12.7520403429  16.1433030491
O  36.1816422011  25.6506686942  7.8072254943
H  36.4280985913  25.6364803353  8.8172209553
H  36.4685841378  24.7649501998  7.5232117983
O  2.2907234641  25.1423839181  29.0041428810
H  1.8116754770  25.9787310108  28.7598768869
H  34.3764177959  13.5788376812  20.1835491538
O  10.1632348173  23.7164570529  4.4108528244
H  9.5100957663  23.0725876543  4.0278772770
H  9.6606794128  24.0217275711  5.1843135192
O  4.3531465267  26.7302490928  13.0379280952
H  3.7747832005  25.9625531039  13.0396880735
H  4.2098953707  27.0841625665  13.9252371781
O  17.7042799050  22.7289875579  4.7256442090
H  16.9598776939  23.2671214027  4.6154293059
H  17.3392277201  21.8135966235  4.4846873424
O  32.9597512373  15.0062357913  26.2877819496
H  33.2749444328  14.1875570098  25.8935674755
H  21.0985524939  25.1979470803  15.3469506660
O  32.2390084098  25.8728674564  7.6523754639
H  31.6293417407  26.2778097590  7.0177162639
H  32.9035467028  26.5462469271  7.8116344988
O  36.8380453467  15.5173309584  6.9558104158
H  0.1591445501  14.7184206756  7.0406490323
H  33.1177024892  24.8847817301  2.9275780061
O  35.3231196115  26.7223694738  14.7737832152
H  35.8726013603  27.3958766504  14.3171856092
H  35.8666546397  26.2892271792  15.4671066301
O  8.7339011946  14.8035617177  9.1552225221
H  14.5074713687  17.8053450603  11.6914369270
H  8.7743994669  15.3564095363  8.3174565213
O  36.6513217067  14.8735441592  34.3687100489
H  37.1587948163  15.6337600374  34.7110240982
H  37.1175658661  14.1105114525  34.6565122137
O  2.3518468882  9.7293370355  14.9978510633
H  1.7896346149  9.6249736546  14.2260206192
H  1.7866891772  9.5178648455  15.7725302364
O  15.2995765266  24.0995827486  4.2050217247
H  14.4200972985  23.6924039063  4.2477951169
H  15.1813365851  25.0365438918  4.4630809907
O  7.1627055217  13.9383755420  12.4291955187
H  6.6698225473  14.6952531198  12.0302432781
H  3.8064938877  17.9660551203  29.8727395082
O  2.0823331631  1.0462438995  11.1339511596
H  2.1745016419  0.8414073040  10.1690606148
H  2.2550543348  0.1917736459  11.5977811836
O  27.3908481353  14.2349132326  10.0443365680
H  26.4207632130  14.0970801606  10.0704433389
H  27.6898019553  13.4387232709  10.5214945402
O  18.0233851326  27.1725138707  11.5680854719
H  17.7809078494  26.4053052506  11.0310916575
H  18.3574483564  26.7709540749  12.3971765166
O  5.2874955133  14.7397861018  15.2928546933
H  1.8744803410  12.8814691012  7.3820925668
H  5.6247416300  14.0467815452  15.8444031374
O  6.4639987368  17.3810323388  34.8994608670
H  7.0016201899  17.8204694711  35.6145481921
H  6.7201135664  17.9146152895  34.1580085268
O  13.3915286241  23.2223303175  9.8029174220
H  13.7540075608  22.4770443360  10.3975167850
H  12.6121033627  23.5772653291  10.2741126930
O  37.1221826569  3.4831938010  8.3399568099
H  0.2973813713  4.3070032860  8.0767959159
H  0.0768411503  3.3662996527  9.2578711818
O  36.2402364439  21.0044828194  26.6735268007
H  35.3512708418  20.5961404508  26.3878709353
H  36.0730019117  21.2019602341  27.6339286217
O  12.9430417988  11.0646938629  17.7381488259
H  13.0945761557  11.0013509195  18.7384249066
H  12.7988064019  11.9860174690  17.5547163049
O  1.1555162827  23.0091711385  27.7305534550
H  1.7266948618  23.8441745747  27.8701394325
H  1.1844472653  22.5452133804  28.5478667671
O  2.9947189115  20.2834657563  10.5128576831
H  3.7926137160  19.7130180316  10.6616387809
H  2.7519160949  20.5415468677  11.4187104820
O  7.9163387207  9.1363672062  17.4596808538
H  8.9036901881  9.2552349782  17.3524978901
H  7.6137702669  9.5797160380  16.6673361284
O  30.7855958153  26.5734691621  12.6128536645
H  31.0494852794  25.6596725243  12.9127290024
H  30.7450332155  26.4844497524  11.5808050171
O  35.9584534866  18.2355209528  14.3811112312
H  36.3329602381  19.0838956546  14.0846589162
H  34.9934709361  18.1504127018  14.1331030165
O  1.5220173429  13.0499440362  2.0499173759
H  1.1256882108  12.3450118158  1.5297862445
H  1.2816977475  13.8681317662  1.6555142268
O  35.4849740317  15.0840202539  1.5346013756
H  35.5089700577  14.5161127228  0.7079492230
H  36.3559727683  15.5388833713  1.4364914930
O  2.5879772867  13.3925606569  10.6089781060
H  2.7233330664  13.6413434460  11.5782409982
H  1.7907039484  13.8417150208  10.3026962693
O  11.1386874581  14.6235366678  2.0596791140
H  11.0725256938  13.6624260147  1.9264185627
H  10.9635288079  14.7396857514  2.9864693694
O  32.1802301397  19.3005460209  34.9828335553
H  32.3904362578  18.3862145777  35.2561222505
H  31.6925022740  19.1122613165  34.1032852263
O  1.2214487112  12.3179995922  14.6504774304
H  1.4568273267  11.4145880315  14.3810074092
H  1.6974009152  12.4625923944  15.5171709259
O  2.8074987757  19.7377118317  1.4679765563
H  2.8458866367  20.4965170985  0.8797900272
H  2.5634416678  18.9799336159  0.9410590850
O  28.9242591542  31.0065957543  2.7865497366
H  28.6844937984  31.9306413392  3.0100234008
H  29.5763495428  30.8039508331  3.4768452573
O  30.2410486154  17.5562603603  6.5439874992
H  30.9686497526  16.8907325439  6.5520152370
H  30.6305677931  18.3832842580  6.4972160283
O  34.3414489074  6.7104394383  19.0212845806
H  34.2659388297  6.4094074970  19.9451176140
H  34.5691877518  5.9070965727  18.5434142161
O  29.5091194855  28.4491887396  1.7157379215
H  29.2682688160  29.3031629749  2.0835797788
H  29.0362049850  27.8575081325  2.3238750500
O  3.3422371672  17.2413909419  28.3380207423
H  4.1367690768  16.7006394585  28.3413914776
H  3.5771804676  18.0007763756  27.7855612045
O  34.7343379979  27.2610258427  34.6443791818
H  34.7703394764  27.0054696685  33.7435938480
H  34.1940726599  26.6243780012  35.1787852669
O  5.4001010009  29.2087389544  0.7203350521
H  30.6251372870  13.0874448665  28.9706965300
H  2.4307460323  12.6404538944  26.5876061522
O  3.7364252883  26.8361107454  7.5918161428
H  3.7829905124  27.3691498389  8.4196638092
H  4.6601467453  26.6026034849  7.4649019871
O  13.5814907404  9.0715121800  7.3595013364
H  12.7779212092  8.6001503841  7.7280516381
H  13.3827893563  8.9497952536  6.4160133254
O  12.1336004139  13.5996129706  9.4231908466
H  13.7574543297  8.1637139682  18.2385417512
H  12.5716886210  7.6824329861  19.0917219606
O  1.3085559393  28.6564617033  21.5221155533
H  0.7623843165  28.8578120181  20.7518301167
H  10.8197253751  16.7644970962  16.8306419386
O  36.5265329094  33.3320413421  7.1896894156
H  35.7360442786  33.8405809615  7.3448565190
H  37.1745746565  33.5620149761  7.8489392918
O  4.2380710147  3.0662501005  21.3713958530
H  5.1561033812  2.8693678222  21.5547146029
H  0.8423056417  6.7633119867  3.5118305555
O  9.6306306802  14.2053661139  18.8846330372
H  10.2434975335  14.9210968300  19.3160123592
H  10.0374787534  13.4233506998  19.3025537957
O  8.5648583234  0.2072316558  16.1480834964
H  8.2521584986  36.6991974405  16.7023558856
H  7.9258463385  0.4138539451  15.4325287413
O  27.2553330724  23.9243172685  25.2662948771
H  27.5280412411  23.6294832373  24.3783823328
H  27.6326886892  23.1623728489  25.7928660026
O  2.6174603626  21.4161154644  22.4546119813
H  3.4193130142  21.0648033759  22.8365645893
H  2.0080014495  20.6775520658  22.2455144003
O  30.9874405265  13.3437322502  19.2755024327
H  30.3163389449  12.6657359567  19.2659288823
H  31.6996336947  12.9440522445  18.7882633998
O  8.2639822188  24.9189667978  16.0963733148
H  18.6737545154  21.3438521994  19.0705666352
H  7.2855644098  25.1321121109  15.9946283262
O  8.9175597689  15.0901211952  14.0606648856
H  8.2371454852  14.7594057157  13.4191608605
H  8.8524715498  14.5339780498  14.8373421547
O  28.8941309627  11.5080126598  18.5073124205
H  28.3013449851  11.2851984081  19.2433746884
H  29.3279615428  10.6182508073  18.2853439800
O  37.0706428667  25.4961252881  26.1120019608
H  0.7692745996  25.6456700580  26.1508268007
H  36.9311602985  25.4465678976  25.1746064093
O  2.2712819915  16.5821167948  12.7687744480
H  1.3000639941  16.6320200032  13.1161548920
H  2.5053102112  15.6621120657  13.0705320351
O  5.0531656613  8.3195473743  30.2863405396
H  6.9203302716  26.5215874853  24.1643671282
H  4.7438553096  9.2635627077  30.4166051842
O  4.6991437925  14.7423643021  29.1241701567
H  4.6530866338  14.3474355383  30.0025431239
H  4.8468084147  14.0778724245  28.4535782038
O  3.2967518271  8.9386266298  19.0110681451
H  2.4564315430  9.4345580715  18.8809262606
H  3.7761147079  9.4324319436  19.6538739812
O  3.1674080936  23.1243799988  20.0162709425
H  2.8439774097  22.7763039023  19.1835984140
H  2.9550979688  22.4956681464  20.6888873920
O  34.5415140811  14.5802331447  20.1074090136
H  35.5336703560  14.6122833199  19.8988977566
H  37.1487531774  20.2204437387  24.2793013115
O  7.6521951725  19.9974302551  12.3679490695
H  7.5035618864  19.4137645757  13.1524727082
H  7.9991845866  19.2817840416  11.7369866312
O  9.9879916396  23.5877537233  13.3532533434
H  9.0702743692  23.4251318099  13.5052298325
H  10.2904177863  22.7510695761  12.9736203083
O  10.1742600791  16.6776713929  33.9952049881
H  9.5364442460  16.2477805446  34.6475092987
H  10.6877029823  17.3347247038  34.4881959523
O  12.3054148029  13.8974958347  17.8958406400
H  11.3699142889  14.1439724586  17.7884295970
H  4.8410241159  17.4391804532  19.1860307999
O  0.3348470003  25.0552400343  19.0077381271
H  36.7182586840  25.1813464900  19.5020197971
H  0.6735266671  24.1929964777  19.3702076639
O  9.8241112670  0.1139078555  31.5129558849
H  10.6978941953  37.2282703184  31.1042794400
H  0.1189420745  16.0920965535  6.4023346088
O  14.7600612795  2.8756832487  14.8094304822
H  14.7580789003  2.2415018341  14.1321757563
H  15.5906652473  3.3473090176  14.7752828144
O  14.3702913280  18.3972551709  12.4653590217
H  14.5837187214  9.4805179322  26.5979393600
H  13.6172660816  18.0031066144  12.8890897837
O  0.5967052134  9.2022938420  9.2940754087
H  0.5261686668  9.9828929549  9.8926988290
H  1.4081040175  9.3076507458  8.7709573332
O  36.9137556232  11.6113802664  10.9741048121
H  0.3858644537  12.2127134977  10.8313573984
H  36.4682022015  11.5866347635  10.1210560494
O  0.8524868266  19.8765700064  8.8917040271
H  1.5388514788  20.0179392559  9.5734880772
H  0.5669557044  20.7840496782  8.6496131926
O  5.4165266612  17.2558195679  15.8379428378
H  5.3310721284  17.1800900573  16.8606859242
H  12.0075245501  12.0374816239  23.5604186476
O  16.8990440086  27.0848114331  20.6865485839
H  17.5205402489  27.3724698555  19.9907428491
H  16.2130763134  26.5440701162  20.2444061462
O  5.1659256108  22.7140296458  4.6706149219
H  5.4646080670  22.2985264247  5.5459125049
H  4.2987445503  22.1952084173  4.6130601967
O  15.6238403561  29.2238330160  21.8938399187
H  14.8921107351  28.7938427735  22.4341931891
H  15.9384162668  28.4310626484  21.3786491185
O  34.8560109683  29.5639474553  3.8830659830
H  12.0830618906  34.0090847267  12.8987943630
H  34.9642918106  30.4193047808  3.4229422079
O  35.4758216926  11.9176749818  17.3886075448
H  36.2809872178  11.4765648295  17.7804927613
H  35.7599314822  12.8309319972  17.2683388043
O  14.0208321160  17.6506643106  1.1171216097
H  13.7776952917  17.6228281986  0.2101588840
H  14.8889151094  17.1908970954  1.0885307590
O  9.3874934763  6.1067248070  18.4901766013
H  9.4445516368  5.4775703651  19.1870680247
H  9.0723411769  6.8127500307  19.0007231021
O  19.7315945770  21.2372317968  15.5368687741
H  20.6703166281  21.1370370136  15.2302438116
H  19.1996895921  21.7428720804  14.8701425501
O  3.2105613354  24.6514041909  22.2204683097
H  3.4373067329  24.4859766706  23.2149089264
H  3.1794823062  25.6195181584  22.1922040514
O  11.4609518541  14.3809913205  22.9404369456
H  12.3405866614  14.1647496778  23.3657365505
H  11.7308406915  15.2584602951  22.6312428494
O  1.7775924972  16.4015197132  9.9645475702
H  1.8724869586  16.4969244440  10.9254104672
H  0.8359671268  16.5746944873  9.7722387754
O  11.3304223914  24.4737155791  15.7571390869
H  11.9653444769  23.7174829620  15.6224348038
H  10.7404004014  24.4376403218  14.9917525584
O  36.7529404837  15.9998959513  12.8779548796
H  36.5552179726  16.8509717374  13.4054632560
H  36.6056399294  15.2002457720  13.3964687635
O  16.7073611170  16.5065507203  1.3744511762
H  17.5424674646  16.9418458151  1.3347308114
H  16.7860968747  15.7926671143  0.6924424639
O  5.5117662893  24.9671149830  15.8242596193
H  5.2244375505  25.3221865957  16.7390330767
H  5.2544688197  25.6394268752  15.1976156831
O  5.8416079325  17.7648476938  21.1618957777
H  6.0621182529  18.5617558980  20.7629832462
H  6.6360537224  17.2916938237  21.2187695727
O  17.4870721155  34.7344876079  21.3573633303
H  18.3203590639  34.9066541183  21.8788075461
H  17.7062765858  35.0458600773  20.4578290333
O  12.0116965899  6.9575658801  21.0298129495
H  12.4178535251  7.2849443372  21.8842719093
H  11.2899688345  7.5662608468  20.8378999286
O  7.8574528328  5.5184917416  15.9541844769
H  7.8421046028  6.0083826082  16.8142127375
H  7.4703708252  6.1802854857  15.3421869265
O  14.0598680878  32.4268160622  26.2855596305
H  13.4292844254  32.3940269402  25.6048667988
H  14.5644553844  33.2732834368  26.4673381811
O  18.4703615922  25.9759652022  14.3132894796
H  19.4567369417  26.0042965268  14.2497184725
H  18.2426836355  25.1094002778  13.9338209477
O  2.0717667366  1.7503621400  20.8377542539
H  2.9226468730  2.0267799306  21.2629202321
H  2.1251635609  0.7650644270  20.7050697885
O  5.9739584923  23.3804147280  22.6790371846
H  5.5853005015  22.7255284567  23.2614437542
H  6.1061822669  24.2414957847  23.1563150629
O  2.7177501844  8.5751099923  24.7916671737
H  2.2830721122  8.0679568301  25.5128560761
H  3.5734662629  8.0441118812  24.4894102335
O  5.7402973442  10.7167727345  10.5282290338
H  4.9520427130  10.7639825527  9.9470958958
H  6.2232728900  9.9125787405  10.2737388937
O  9.7076717167  16.5829521954  6.8290354293
H  10.6819293175  16.6476240129  6.9248471219
H  9.3803858666  16.9397691885  5.9390619251
O  17.2990665640  30.9053334399  28.4540109628
H  3.0709227160  13.9796759258  25.7713127865
H  12.7373568900  13.0553745308  19.9842847725
O  14.6570265649  36.0963537440  22.3621858604
H  13.8109850488  36.2325117211  22.8863397347
H  14.6540806328  36.5331172073  21.4942459000
O  2.4510671655  13.0996436066  17.0490720845
H  1.9029318611  12.4821392838  17.6157896201
H  3.3817806027  12.8855560803  17.3071694904
O  13.1518054759  20.8417977670  30.1730636216
H  26.8180421643  16.8534819152  34.8208359133
H  26.8640933834  16.6709387780  33.3445308372
O  29.0542640717  28.9937842070  23.7483718741
H  28.6280913563  28.7374384763  24.6098880351
H  0.7826408601  28.2205122981  22.2059278610
O  25.8651116671  26.1025375055  19.0936600894
H  25.5837964340  26.7778302663  19.7206688749
H  26.6606290900  26.3356605555  18.6486793356
O  14.0703741351  17.5818188178  33.3407872451
H  13.9892651510  17.0739810417  34.1902077416
O  12.3018063290  25.2343057866  1.5715240274
H  12.5740054785  24.4867058035  2.1689880355
H  11.7827937088  24.7269659115  0.8372470791
O  9.2915983161  32.5275206335  4.3302380125
H  9.0274926830  31.8461238562  4.9888751984
H  8.4880987844  33.0543051830  4.4109928411
H  1.9623581340  24.7269923664  0.3079068132
O  16.4205722235  21.1143657184  36.3482468370
H  17.2133393543  21.7023884070  36.3413700114
H  15.6398287117  21.7199298942  36.2828764722
O  13.5688398686  29.8979272793  11.9993374336
H  14.1161282225  29.1759727193  12.2729999776
H  12.7372636597  29.7737402638  12.4601484788
O  4.2760305921  10.4406312274  25.6322109714
H  4.2716711348  10.4737385309  26.5818836672
H  3.6152895484  9.7681243770  25.4030323890
O  9.0580157470  35.4701920823  23.5505911242
H  15.4606657331  26.7040972034  23.9220034252
H  9.1003885347  36.4500456017  23.8073227274
O  9.5901285466  18.7238507691  21.8634769936
H  10.5929586788  18.7039853890  21.8103714781
H  9.2148693897  17.8484371394  21.8152412585
O  19.2226103877  12.8374515457  33.7958453121
H  19.4137459791  12.7815032436  34.7380556947
H  19.9750226745  12.2595144430  33.4016968141
O  36.4432959366  31.4902661072  29.6007970305
H  36.6597809848  32.4481018742  29.4034394554
H  0.0705605717  31.0966291717  29.5999402102
O  15.7118450762  19.4345500288  18.7702600135
H  15.3362113351  19.2224837386  17.8665596013
H  16.5594829121  19.8888395003  18.7012616435
O  37.0440289444  25.8264111940  0.6430585224
H  3.2622303509  22.6468759281  0.5098416809
H  37.2481266323  26.1397483441  37.0212949412
O  36.8088922178  34.0767974446  4.2260189787
H  36.5575256899  33.3304305626  3.6914837162
H  36.8570646074  33.7858209392  5.1741232664
O  35.9775696483  19.4140142123  32.0331073746
H  35.2256486918  19.1116983163  31.4201655628
H  35.4544028573  19.8782403718  32.7090115612
O  7.7357059955  21.7764863670  24.7969273099
H  8.3264275180  22.5386625166  24.6848153216
H  7.1162111825  22.1434325234  25.4125065237
O  0.3812879513  19.4478349958  24.6286282474
H  37.0397699564  18.7038477587  24.5405579843
H  3.2309255857  25.3985082255  29.0322875223
O  23.5936828461  25.6328255996  17.3562031254
H  22.7087508289  25.8618587224  17.7197164804
H  24.1773335008  26.0229430786  18.0545055245
O  11.3507332104  21.2626728419  34.8270968372
H  10.9033144236  22.1032828232  34.6244722540
H  11.5606334949  20.8876723755  33.9216392164
O  1.6857017751  15.5298486326  31.2341454069
H  1.7282224963  14.7130282357  31.7718320185
H  2.5193945787  15.5032803207  30.7643716337
O  2.4326448268  21.7620995989  32.5402080255
H  3.2681348478  21.7600702853  32.0165308031
H  6.1366861181  15.8472996646  28.4907858037
O  5.3665738442  29.7885010557  21.9379003779
H  6.3279169128  29.7355807907  21.8820179591
H  5.2457870544  29.9213493231  22.8587023081
O  32.5921579752  25.6208683123  3.3164823618
H  33.1065812022  25.9004046216  4.0767719512
H  9.3213841653  0.6190993835  30.8502595976
O  10.8925401123  21.3153620213  24.3043977064
H  10.5800819213  22.2158142721  23.9539291958
H  11.1352371559  21.5226854734  25.1957548124
O  15.1812707247  9.0369180656  25.9806447831
H  8.3546996676  13.9491543661  8.9486264968
H  15.0332126378  8.1116866681  25.9961441192
O  7.4413387711  22.7795684679  11.5585605757
H  7.1849331100  23.2264182517  12.3996436860
H  7.5372531396  21.8830334850  11.8725992101
O  2.5789920368  13.9722549013  21.3059580820
H  3.5386003967  14.0428661868  21.3366637236
H  2.3498928605  13.0261226874  21.6028360199
O  1.7337263274  30.3324759934  29.3158274379
H  1.9017250541  30.5510885488  28.3770672111
H  2.3945343288  30.6452756433  29.8901535419
H  11.2315747363  30.2614667565  22.5188463073
O  13.7769184954  19.5317719936  7.7907264070
H  14.1161578790  19.0972297292  8.6052874382
H  14.4559759218  20.1634719863  7.5691636250
O  10.2358192596  35.8561672728  5.7472357854
H  10.0984191864  34.9719499031  6.1273739688
H  9.4851721271  36.3941832386  5.4517720739
O  15.4425414912  28.5173248909  3.4416576137
H  14.7220819662  28.3123463312  2.8089315381
H  15.5813573219  27.6662441980  3.8602157156
O  28.2892355937  19.2439432838  37.1359756689
H  7.1664676952  7.7489324340  9.9003431941
H  27.7910286659  19.6326816886  36.4265432696
O  6.4641109473  7.1914991621  18.7712061794
H  6.4822625097  7.2104152089  19.7673596610
H  7.0281105446  7.9757067090  18.4442370174
O  3.8347192991  26.3675707724  34.9797272996
H  3.5524021977  26.0714851411  34.1062980920
H  4.8000238229  26.4619640251  34.8808230787
O  11.1084592388  24.5342377311  11.1204167256
H  10.6510730075  24.2903403896  11.9668028006
H  11.7651803431  25.2160642137  11.3892240774
O  36.5742107034  7.4605219487  0.5222035276
H  0.2409410411  7.8822172821  0.5333092231
H  36.7055747032  6.5522298709  0.2343760161
O  7.1852457350  26.6331904589  29.9779931853
H  7.3522815669  27.4013132199  30.6601713880
H  8.0677851847  26.2382908705  30.0845662155
O  8.2752311889  20.2701024256  6.3838772002
H  9.2210703396  20.5521403081  6.4405161059
H  8.2264668961  19.4852299553  6.9245430947
O  13.6215992483  36.4602287684  33.7886923576
H  13.6039911475  36.2684882954  32.8388584025
H  12.9690363208  37.1442539858  33.8126861398
O  21.2034254594  14.0776831360  26.1487295943
H  20.7926912867  14.4861388294  26.9624557736
H  20.4973407756  13.4760486437  25.7973907500
O  8.7325982717  21.2556477152  18.3554785584
H  9.7114599495  21.1493960768  18.6053883066
H  8.8586013890  21.0774483726  17.3970582116
O  13.4996019325  31.2817612731  2.1741435954
H  13.3879468126  32.0899679368  2.7878683510
H  12.6496597772  30.9003134650  1.8698390198
O  6.7670043825  34.6307952488  22.1653175959
H  6.9849437921  34.1960520570  21.3308699306
H  6.0911103267  35.3861668676  21.9987879965
O  19.3787559862  30.0587497794  36.8321583341
H  19.6740572219  30.6621052322  0.3189136258
H  19.9384298773  29.2429566522  37.0002085178
O  3.9866853450  32.0762691404  30.3925821856
H  4.0449067888  32.9063212064  30.8795057476
H  4.0028981555  32.3519787370  29.4125482379
O  12.2787060678  34.1026208788  21.1249628829
H  11.7444473742  33.4803877614  20.6395945968
H  12.5621846522  34.8160054566  20.5006316639
O  18.5225321941  17.2809782778  8.4955219753
H  18.6852032958  17.5946923131  9.4531423830
H  18.8323636681  16.3518065865  8.4400495459
O  21.8196142226  8.5027454743  1.7826483449
H  21.2964065819  8.9459924589  2.4766426259
H  22.5362542738  9.1087342977  1.5567949145
O  9.4276639068  15.3725690596  27.5794440064
H  9.9113589945  16.0901912175  28.0277108585
H  9.5771824276  15.3965913702  26.5888339105
O  25.5568046288  10.1126696251  30.1652951935
H  24.7674734953  9.6419853436  30.4442505632
H  25.6856261497  9.6196279231  29.3334531334
O  10.8841662511  20.9889917456  6.0390563386
H  11.1287592908  21.8512840411  6.3447974185
H  11.7384958387  20.5747455279  6.1589605749
O  6.2249145710  21.6556204638  2.2654858150
H  5.7378793155  21.9606789576  3.0865204062
H  5.7683882139  20.8151657026  2.0126916944
O  1.3484459607  18.3878042424  32.0324879207
H  0.5104557997  18.9025079572  32.1707025796
H  1.0792903747  17.5106740089  32.3077520324
O  3.5875533797  24.0963394616  25.1680545490
H  4.4680268679  23.7867026160  25.4697717306
H  3.3938463237  25.0020858231  25.4617107456
O  30.7949354717  25.3491651229  0.2626383613
H  30.1325747912  25.0469535128  36.9364025029
H  31.6283808868  25.3361780794  37.0071907877
O  21.7478072090  19.1586128987  7.4811705118
H  12.2271064617  12.7449427682  21.3525213037
H  29.7758036156  12.0592836817  29.7132770330
O  3.2704480906  25.5325110597  32.4639192141
H  4.0776300734  25.1989581063  32.0422893305
H  2.7531019194  24.8011679654  32.8337765873
O  11.9756977441  18.0739821714  35.6264601633
H  11.4620334992  17.7256437983  36.3634867068
H  11.7664799108  19.0075292534  35.4839681673
O  5.5935572369  13.3178925321  31.6825688939
H  36.7925091823  19.0452137276  9.5069690165
H  35.3292943170  19.3526738707  10.0277385430
O  18.4016245079  22.5954134346  8.8075790706
H  17.7869034963  22.2173899029  8.1302534549
H  14.6206838279  12.9535555104  24.6606786725
O  13.8396787799  5.9770269459  26.8174811566
H  13.6714593975  5.0910873351  27.2163302287
H  13.8908019948  5.9298719673  25.8629438808
O  1.3135906122  5.8287519709  7.7947369024
H  1.4427891889  6.1659567711  8.7311324571
H  3.5423667416  7.2903751063  9.6324767826
O  6.3139705085  25.9329331905  9.4604212534
H  5.9480354966  24.9984113069  9.4739843950
H  6.5325865561  26.0437429685  8.5496812349
O  12.2758156432  4.1302786496  6.4242495996
H  11.3204803328  4.3152021094  6.7955398429
H  12.8227604917  4.8081362672  6.7771566731
O  8.9004913939  28.6376916236  8.4755926863
H  8.2562664999  29.0180371594  9.0781442614
H  9.7222454133  3.4926834219  1.7343594266
O  12.2517053553  2.6861609250  36.8617148669
H  11.2870715928  2.6611272488  36.9348066829
H  12.3662986199  3.1753156431  36.0215755914
O  10.7634914126  33.3763514799  33.3984323816
H  10.5733016076  33.0386209425  34.2356601466
H  9.9495311297  33.6963697147  32.9398560799
O  3.0047363054  28.5736875310  5.4626881268
H  14.7035106095  1.5203965569  34.3250542432
H  3.2171726639  27.8418972789  6.1230123920
O  6.8131291387  30.0053801741  10.0017230843
H  6.3954247734  30.6544568997  9.3924658501
H  6.1165576410  29.3265484231  10.1376130292
O  4.5752072393  19.1749685739  5.5220223425
H  5.0501460157  18.3864696494  5.9472522572
H  4.8680450769  19.9190931782  6.0504022214
O  29.0152908098  21.2401584122  15.8679893786
H  29.9748818709  21.3711981086  15.8807826962
H  28.9026478035  20.3303766665  15.5179212091
H  12.0980601789  32.7506737996  15.0194497192
O  7.2752871430  24.7422425655  20.4626961388
H  7.9484373581  24.3997898602  19.7997566969
H  7.8843593915  25.3064645242  21.0238661599
O  1.5404848689  19.9417900595  34.5583087941
H  2.4165730954  19.5042596159  34.7770451626
H  1.2782462487  20.2823610000  35.4439423259
O  12.1171851403  31.1124220288  15.0319908396
H  11.6058881738  30.9787668215  14.2526101390
H  11.9815045577  30.4846409876  15.7696017524
O  6.0330680041  25.3028447989  3.6971434721
H  5.3788949550  25.9471729302  3.2960267341
H  35.6020117681  28.3853748067  29.5110725957
O  14.7427680119  7.3671112189  0.7296784553
H  15.5850209509  7.4945317733  0.2423914186
H  14.7514123731  8.0125507439  1.4427005989
O  10.9611896062  36.0587584303  12.8233883167
H  11.2987794113  36.1568425495  13.7589932100
H  10.0507396762  35.8318525543  12.7497900724
O  14.2101257104  24.1109555722  13.2873460195
H  14.4158395996  24.9680842663  13.6751509020
H  1.2111374901  17.7071356180  3.5422997719
O  6.1007840114  4.4423751394  1.3360544758
H  6.4003291428  3.8138296516  0.6826835401
H  5.1119984993  4.5109196820  1.4874869319
O  9.0563031726  24.1567864805  18.4453450983
H  9.2331373805  23.2009910721  18.2326948162
H  7.9110827404  34.6382821070  31.6433792410
H  31.8609529823  35.0465157288  14.2644721073
O  15.7197463073  26.8920620715  29.0318559915
H  14.9056506895  27.1157225786  29.5076918197
H  15.3956689006  26.3467961841  28.2369051402
O  7.6499106107  22.9245406867  14.2936597297
H  7.8686250552  22.0051583952  14.5702481581
H  7.8682573618  23.5043277585  15.0564031457
O  17.6868572374  32.3542082517  32.5569400667
H  18.2413034136  32.9088618175  31.9900616660
H  17.1040439458  33.0463813051  32.9254594393
O  2.2266229520  35.5915980012  5.0843660528
H  2.3456903596  34.7270262859  5.4977680959
O  5.9582664258  36.1726081160  0.4998037232
H  6.3179271576  35.2671203445  0.3326920353
H  6.5376891880  36.6909144727  1.1114872777
O  16.4931093384  3.6213402239  6.5492668885
H  17.1295009207  3.1453739185  7.0565965567
H  15.7539177503  3.0653992756  6.2583996453
O  16.2562720047  22.3373721239  14.6982542197
H  16.2360386981  21.4158867797  14.4487962926
H  15.3549229528  22.7008831953  14.7189660836
O  29.7351058613  12.0609293725  7.4592100316
H  4.3838034224  14.5155392386  15.2127999483
H  29.8512070916  11.1714452943  7.8295583930
O  14.9253407048  1.7902034642  21.6155908585
H  14.4867033268  2.4488452868  22.2322277662
H  15.7701284610  1.4950336033  22.1000849757
O  12.9688481920  20.5795225969  27.5158946411
H  13.6611276915  21.2160484260  27.2681686219
H  12.8305052606  20.0271343538  26.7202397228
O  3.1747927205  1.8378532855  2.1562683145
H  3.9707338614  1.7222150157  2.7362723677
H  2.4860285938  1.4033468369  2.6496058788
O  34.6371875975  33.7412983769  14.2926009766
H  35.1607647562  34.4627063129  13.9255082596
H  35.0228347200  32.9721813566  13.7496378892
O  13.0859756812  9.0931490954  4.7104071230
H  13.0676886533  10.0752271711  4.5746155521
H  13.9126312376  8.8115619652  4.2056970196
O  34.7178190156  13.9262384881  4.9974225427
H  34.6315200349  12.9758358759  5.0065808184
H  35.6869228163  14.0139791910  4.8198458761
O  7.7280192306  28.4475968912  5.9257466742
H  7.1589477711  27.6611772308  5.9236531426
H  8.2459828876  28.4640194138  5.0797916796
O  11.3330576210  2.1631753746  4.1179927855
H  11.8615683630  2.9812185755  4.1778991103
H  10.7785196341  2.3455381668  3.3437505197
O  35.0106847982  34.3860518223  26.5005537473
H  35.3227309672  34.9924289280  25.7909720462
H  35.7858561119  34.3673801400  27.2018708274
O  18.2971387398  2.5516209626  8.8293676363
H  18.8419398399  2.3741430984  8.0257175539
H  18.6064686888  3.4116814549  9.2800511559
O  9.0302878644  22.9619766512  9.3234865028
H  8.6286297098  23.1192851226  10.1530885263
H  9.6270798590  22.1674514887  9.3934905227
O  19.7575386776  21.8243823930  11.2391253928
H  20.4270175574  21.2323598195  11.4520972781
H  19.2192121376  21.4090397558  10.4616986407
O  31.2015452840  33.7304217344  11.1636737322
H  30.4757470033  33.0711782334  11.3173612864
H  31.3832620112  34.0064032294  12.1103893938
O  0.9368699655  31.1800233182  9.3695367658
H  1.7597542052  31.2544914377  9.8712108356
H  1.1880039603  30.9544509845  8.4690564836
O  10.4026454103  32.3754256469  36.1403656974
H  10.5991688215  31.6278004406  36.6946033407
H  9.6186761297  32.7458155901  36.5193579271
O  8.1233294223  18.3202603524  8.2905579054
H  8.6249091795  17.6780708353  7.7542619936
H  7.2143818151  18.0860274399  8.0426923120
O  15.9407162494  28.4940819510  12.7786323460
H  15.8158429902  27.7203802980  13.4222814680
H  16.6844423557  28.0947083215  12.2397730610
O  6.5874298124  27.9363546204  18.4027225214
H  6.6552659977  28.4563400963  17.6009751107
H  7.5007235268  27.7389952104  18.6652456522
O  2.6088504892  0.0601104209  8.6595409292
H  3.3370626202  0.1670084417  7.9831040355
H  1.8305427507  0.0034529051  8.0541354051
O  28.9605708183  4.1818092725  10.9536333951
H  28.9309086137  3.4714053885  10.3158756839
H  29.8607907320  4.5630949170  10.8341106543
O  36.1274323787  0.7882334497  4.0619741860
H  35.4685664432  0.0537096113  4.1364086098
H  35.8845120934  1.4335002843  4.7375883676
O  7.8723269705  31.3624730959  6.3416316712
H  7.3162861080  31.9947346267  6.8714998419
H  7.7100149195  30.3817356907  6.4627874614
O  35.0998165354  18.6927803570  5.0556628795
H  34.9539090902  18.3490730409  5.9744423203
H  36.0716984250  18.5293453115  4.9862375872
O  7.0576984222  2.4126875904  22.2665873245
H  7.5457753285  2.3847288679  21.4114656870
H  7.0617869276  3.3404511091  22.5995494131
O  3.4890553307  7.3383321171  5.6401087512
H  3.3348334960  7.2371123043  4.6709436232
H  3.6202702651  6.4072124310  5.9100215458
H  30.9861113724  28.4139955331  35.1539300985
H  35.0262132272  27.4636088834  1.9488363163
O  15.5243384709  30.2863089957  7.8156734209
H  15.1116275151  30.1332599355  6.9085394504
H  14.8049378622  29.9352313602  8.4147968020
O  6.3709539780  16.2491463825  11.4014698881
H  5.6429687097  16.8162396841  11.7563239912
H  5.9748053934  15.8289155715  10.6152465401
O  23.6900277426  27.5738073289  32.8640011681
H  29.2874009876  23.9994854883  17.5362371645
H  29.9556802454  25.1162568246  18.3201187482
O  0.1176855255  26.8534760913  35.3431716093
H  0.1014830787  26.0273822745  34.8852419316
H  17.9392304291  23.4529388063  9.1551374667
O  2.3801370014  25.4969029965  15.2081299830
H  2.6658173471  25.9171585204  15.9905037186
H  1.4378410488  25.5346358852  15.2762103656
O  37.2366681969  6.3382316400  3.8330176550
H  36.5699013309  7.0319272046  3.8017949345
H  11.9881417871  29.2594294370  18.0849214368
O  22.8114001535  33.7078032068  3.6246664189
H  22.8061142164  33.0932537162  4.4087177395
H  21.9464112859  34.0180701411  3.3667810108
O  37.1066259539  37.0185772662  17.6586309773
H  0.1520726339  0.4470264705  17.1252834918
H  36.7641978448  0.1969317150  18.4445351740
O  19.8814572149  35.6729541103  22.6266724560
H  19.5673630558  35.6871220210  23.5771820831
H  2.3591345161  1.3481940306  31.2858419578
O  33.5043049514  21.5855478657  29.5938623608
H  33.8267319525  20.6351404479  29.7001766954
H  32.7152461631  21.3923428985  28.9888337363
O  35.5897316386  28.1550655712  21.6333612497
H  35.1400905649  28.8282384111  21.0960488279
H  34.8890679842  27.8950236051  22.2855358145
O  0.2508929594  29.6690059633  19.3360312727
H  36.6139498385  30.0801855971  19.3293130163
H  0.8454743715  30.0268855660  18.6680667554
O  36.4132593183  20.4968012395  20.1449080654
H  11.9031380300  25.6641590715  16.8019481985
H  36.0088118914  21.0729866891  20.7788284240
O  10.6672164397  21.0452194263  12.1529790946
H  9.9701115951  20.4613800783  12.1595517567
H  10.9606852646  20.9738743501  11.2536358306
O  21.1039714084  1.0540021581  16.6576891645
H  21.1506571864  0.6422284869  15.7848645569
H  20.7933506998  0.2724966675  17.1757346235
O  0.8495739601  32.3304815591  24.4936818075
H  37.1420394808  32.5646517788  24.5147756967
H  1.0670287632  31.8108125124  23.7201419783
O  33.8075747650  13.1405280982  13.0194183748
H  33.9662074314  12.5642661596  13.7821969158
H  34.5998024585  13.6645114661  13.0894261310
O  6.8467107503  26.2579122689  23.1771954638
H  5.8541953743  4.7114256824  31.6243594124
H  6.2723506133  26.8757591905  22.7358969931
O  4.7158520670  36.0187851930  16.4137333748
H  3.7772337266  36.1237287030  16.1428591117
H  5.2215385604  36.4938468042  15.7276641309
O  0.2431911577  24.3107482545  13.4880117281
H  36.7710989077  24.9369891118  13.6004496791
H  37.0482715351  23.4657642758  13.5639818078
O  34.0771219092  35.6222261535  17.1407853717
H  34.9282634753  35.8957862881  17.4720927851
H  34.2017478633  34.7079729284  16.8259409322
O  34.8656619057  28.9568311922  29.3473165598
H  35.1828205030  29.8730737265  29.1069817791
H  15.9594611719  35.8752329419  19.1886817498
O  10.8868439544  2.2847525003  14.1323706932
H  11.4105945700  2.2092927908  13.3040415456
H  11.1121746193  1.4454203415  14.5281178016
O  4.1867116226  28.1404562847  15.6327264624
H  4.9144690975  28.7524992953  15.5148448340
H  3.3571618177  28.7128878264  15.7182979265
O  4.4279155267  36.9696833432  27.7606466039
H  3.4508194594  36.9649225629  27.7577752418
H  4.6323907268  37.2273718022  26.8481697450
O  3.8711453120  27.3682730543  21.4302496005
H  2.8985862540  27.6466606011  21.3612898711
H  25.9784806935  13.4609975783  27.2743530542
O  28.1925005650  33.7991424441  20.3371853230
H  28.7470909861  34.5093518084  19.9754172586
H  28.1392296806  33.8872662372  21.3205319997
O  17.5692052490  30.6602544771  13.2464431307
H  16.9007811875  29.9515872357  13.4127709388
H  8.8863068647  24.6211962722  17.6315096754
O  14.0167569927  31.3692931578  20.9731239790
H  14.6274464683  30.6817253378  21.3439247953
H  13.5579780627  30.9664427825  20.2261719058
O  32.1427798100  34.1248017975  14.1946883078
H  13.8717693183  31.3170230351  27.8488061137
H  33.1178418058  34.0912591098  14.2102116222
O  13.8363997606  35.3394842697  16.2015749980
H  14.0712526799  35.3212749983  17.1331273902
H  14.6414340082  35.5957030914  15.8158595852
O  27.8381147198  11.1217097449  28.7869845186
H  27.2604180196  11.8829620053  28.9759660089
H  28.2363913450  11.3898203970  27.9461065246
O  5.6872503777  35.8880440771  19.0044255542
H  5.8392504477  36.7615848665  19.3090892511
H  5.3661697053  36.0278875893  18.0610838299
O  19.5171386932  32.8849091567  23.7287416159
H  18.5763268461  32.6637281899  24.0196957201
H  34.4209381416  14.8768089115  18.2149126325
O  11.8733969000  31.1070606648  24.1778132190
H  11.9426329069  32.0468190358  23.9162882709
H  11.2847638051  31.1301346779  24.8843802399
O  20.0425018266  34.9822064007  3.0385841704
H  35.1065760137  29.8685205732  4.7872262415
H  19.6140985820  34.1498806198  2.7299024964
O  35.3105103174  30.5642952739  34.3867140455
H  36.1712665377  30.1646261541  34.1828761480
H  35.4386580109  31.4623179409  34.7545347837
O  10.9824388731  16.4398601672  19.7432632217
H  11.1349343074  17.0039709680  18.9447262774
H  11.7707122937  16.5775930335  20.3259334593
O  10.8554506832  5.5943212343  15.8639360337
H  10.3913643703  5.9522872485  16.6166503707
H  11.1577810242  6.4002186059  15.3798546353
O  11.3726856377  19.9832427573  14.7310007543
H  12.0408223870  20.6894318766  14.9482007606
H  11.4177775847  19.9630565081  13.7566358572
O  9.4227017946  30.9335913319  17.4582745814
H  10.1037984870  30.2971003892  17.2857940457
H  9.7244049367  31.7487165517  16.9878853876
O  35.0456254928  28.0536162551  17.9846986645
H  35.7593843181  27.6403224193  18.5667677664
H  34.9551347246  28.9817838069  18.2377004006
O  14.7265026030  33.1916687918  23.0113887238
H  14.2849213114  32.6174429003  22.2887701663
H  14.8713185242  34.0483655539  22.6929109522
O  15.6703717349  37.2071751191  28.7642688260
H  15.0006607014  0.6593851746  28.7424105964
H  16.2705552642  0.0753986275  29.5202394262
O  5.0826550204  25.5598919515  18.4082400455
H  5.7794791743  26.2268476993  18.4978841991
H  4.2850609577  26.0237147412  18.5381260607
O  33.2532064109  32.3980551427  26.8145232155
H  33.9917319396  33.0361217296  26.7947432746
H  32.5961613850  32.6478944979  27.5485956020
O  10.9278558518  18.1455554673  12.6176913989
H  11.4784199944  18.0185664540  11.8618902547
H  10.0302916507  18.1785098263  12.3253673511
O  21.7818237147  27.0471634425  24.5079854683
H  21.5893982678  27.4012125336  25.3763765316
H  22.7898012230  27.0453189651  24.4454951159
O  6.9973096462  30.1830307160  16.7352933307
H  7.0533083655  30.1973392914  15.7200631171
H  7.9591044453  30.3724094149  16.9307227119
O  8.1934570144  16.2641463270  21.3435945458
H  8.2023628310  15.4568591678  21.8734862184
H  8.8888287441  16.0770478250  20.6717259692
O  16.2536808103  22.9947247856  17.9975992082
H  16.7893825931  23.8083541507  17.8215863187
H  15.9639001688  22.7402479407  17.1052070028
O  9.4340794410  28.0932923480  3.8135790391
H  9.3405954511  27.1889847184  3.5615660853
H  9.5972650904  28.4259625617  2.9366248977
O  31.9747402751  21.9621425714  17.9882070349
H  31.2950023805  22.6832148924  18.1003531468
H  32.4410145307  22.2533893752  17.1527521884
O  35.1920673719  27.6329886512  26.3843844754
H  35.5484587094  28.4805196400  26.4611684198
H  35.9266722070  27.0518315497  26.5784445595
O  4.0388081111  31.7049306906  20.4801695529
H  4.6292564686  31.3828830710  19.6839800997
H  4.6362803076  31.3776662757  21.1924348014
O  0.0800664553  34.8672522719  22.1456425365
H  0.9960473232  35.3309160020  22.2439863665
H  0.2535196620  34.2016516175  21.4780255714
O  3.2979480986  30.8498000663  10.5774338071
H  3.6869626248  30.9267609571  11.4823311190
H  3.8463560499  31.3339166613  9.9323752468
O  35.8143533167  2.7761604991  15.7460379258
H  35.1919802569  2.0442318686  15.8222804932
H  35.6751856932  3.2139264998  14.8991920780
O  3.9964025602  35.2113626294  32.5978973720
H  34.5504860543  28.3040966234  0.6708735215
H  35.1941112858  29.5131143513  7.1270232421
O  11.0000561906  0.3270380901  22.1383262708
H  10.7417567515  0.0310572264  21.2060317235
H  10.1664120229  0.5433283894  22.6713566391
O  7.3246583881  18.2411704332  14.4567842887
H  7.7948868807  17.4485226177  14.1861814252
H  6.4887236666  17.9263729633  14.8390386163
O  6.3524493857  26.0482554565  6.4004872851
H  28.7934270858  1.1956329690  0.0147631059
H  29.7167979783  0.8436067632  1.1333451096
O  13.6110107066  12.7835993618  24.7663079450
H  13.1512978805  13.5362090745  25.2672902879
H  36.4193959993  27.0950403201  35.2123078265
O  26.9340794615  33.6490834950  35.0865561766
H  27.1396414465  33.2562882014  35.9411044764
H  27.7820156818  33.6451886764  34.5517989507
H  7.6387424378  11.3173035660  35.2088618484
O  11.4626676963  24.2310868551  19.8334201293
H  11.2992810242  24.9640426005  20.4395607498
H  10.6759655085  24.2670774593  19.2502642276
O  7.0968086418  22.8625110747  36.9017946749
H  6.8238440119  22.6185888150  0.5453551827
H  7.3654546352  23.7796988454  37.0607075177
O  16.1589005735  36.4877563125  36.2310376458
H  15.7652718598  0.0398819979  35.8498997533
H  30.8095003699  2.0658448482  7.2429840816
O  33.5341440291  34.5796237253  35.0309866926
H  32.8403587391  34.5065354510  34.3572424830
H  34.0027644449  33.7714851972  35.0081016213
O  8.2560436725  14.0118996304  22.7832876448
H  8.7060303760  14.2435183221  23.6246028263
H  7.4951172000  13.4564517105  23.0459747107
O  2.2891207210  30.8187178268  22.5292506619
H  2.7299681288  31.2080418268  21.7465123393
H  1.8243105471  30.0322622140  22.1809012383
O  9.5878348032  5.6392128435  27.7373483030
H  11.4384126524  36.4308359888  6.6760865704
H  8.9633677671  5.0069878140  27.2668550316
O  17.4320168465  26.7175564812  7.1000579178
H  18.1789006702  26.1736719939  7.2129353465
H  17.7245832323  27.5872032486  7.3224936662
O  16.2344146125  34.6094102013  33.0202209261
H  16.7158779575  35.3187000136  33.3965933099
H  15.4957520107  34.4120629293  33.6532215791
O  37.2126610664  24.1953209841  34.0873410258
H  36.5317737849  23.7894265964  34.6859396818
H  36.7360740014  24.4771757948  33.3196911625
O  4.0698072474  4.5963915841  28.5059381897
H  4.5018877404  3.7631129325  28.8287060859
H  3.3001000700  4.7672598298  29.0258411001
O  2.9839228302  21.9234342559  37.1554522896
H  20.8144995421  33.6235119500  8.2108289689
H  2.9690986030  22.3357686415  36.2698232457
O  14.6646690150  4.6214887580  31.3748956973
H  15.5521245659  4.2606396143  31.2539746936
H  14.6268123981  5.5687570797  31.4910261145
O  12.5507408378  23.3193113082  6.7681545936
H  12.9818375015  23.5373194251  7.5642651687
H  11.8395909709  23.9897754544  6.6002976290
O  13.2306909335  33.6198847746  32.3881421590
H  12.3136888106  33.6478193630  32.8314385834
H  13.1809602140  33.5743880461  31.4311717512
O  15.0625790935  35.4301663916  19.1587959025
H  15.2495957600  34.4900896321  19.3069441494
H  5.6400390631  24.4525669308  3.6784625293
O  8.8814059035  10.6567313262  1.6922028345
H  8.3105549485  11.3713042458  1.4755189130
H  8.5743363728  9.8412595943  1.1998798087
O  13.7303064662  29.4243081500  25.1942783273
H  13.3306141491  30.2240848219  24.7967461605
H  14.3308245411  29.7191237300  25.9295309063
O  15.8863495200  34.5759730955  26.5922593376
H  16.5897993743  34.4870549315  27.2155689729
H  15.7161506941  35.4946113053  26.3518915301
O  7.5409352146  28.6812616304  36.3456299349
H  8.1333838379  28.5361242662  37.0651842123
H  15.5210976622  21.8145119354  31.7394429446
O  7.0751036580  24.0111994985  32.8387441617
H  6.5353162816  24.2229224182  32.0441196276
H  6.4977493455  23.4395849437  33.3962106567
O  8.7244487290  34.7894448656  32.1530945915
H  9.2139125654  35.5785631821  31.9095647343
H  17.6197262655  30.7555428565  12.2843335925
O  20.3367683475  17.8646672453  27.4971570049
H  19.4499423967  17.7374913886  27.1194495309
H  20.4390190009  17.2020849786  28.1895200315
O  13.7953580161  30.7558949447  28.6415140016
H  14.4047586922  29.9893839396  28.4305348794
O  2.4310692985  26.5668572525  18.0012237692
H  1.6987517367  26.2258570300  18.4762160493
H  2.4023959684  27.5066754383  18.2177017661
O  35.3282286994  22.5484718843  15.4250762801
H  35.4937909772  21.9532449969  16.1891190432
H  35.8109770218  22.1265457391  14.6997303801
O  31.4572561186  30.6987902876  30.6303766719
H  30.5670225476  30.7228839479  30.1836371154
H  31.9456626103  31.3154255602  30.1125220321
O  14.0759924189  22.9634198746  22.7104712395
H  13.7787668072  23.7456298368  23.2201096823
H  27.2440398726  25.8217844480  27.7508553368
O  8.3829188360  36.1368575014  28.0615231816
H  9.2809084391  36.2387581148  28.3141543104
H  8.2445567657  37.0047927869  27.6855128060
O  35.9706478874  21.5269611584  23.7285078397
H  35.2394457552  21.1412786513  24.1934939644
H  35.6849285758  22.0343041221  22.9448747689
O  9.5407761829  36.3905664656  36.5418723509
H  9.0657423652  36.9155152560  37.1767626689
H  9.9209524731  37.1407818669  36.0067559208
O  5.0698721402  2.0491985236  29.4271560269
H  28.8088782208  19.9902003326  0.1660658259
H  4.3868297199  1.8508778342  30.0813140434
O  2.7325736826  29.9963300412  34.2490799297
H  2.9723239712  30.9161393686  34.3477685538
H  3.0133025685  29.6019934413  35.0636816335
O  4.1533994736  28.6952801352  28.1617312744
H  3.5267141457  28.4684112991  28.9011379736
H  3.6917751375  28.3392284200  27.3556447856
O  11.0122958100  5.1949515463  32.7872216606
H  10.4646208610  4.3707207588  32.6709256653
H  11.0523781859  5.7380064852  31.9293735193
O  34.3692505071  23.9072016811  25.4004838532
H  34.4160009926  24.6405164654  24.7349516908
H  33.4421517474  23.5969633954  25.2549538747
O  11.4540924624  33.8073549846  23.5722638472
H  11.7381938155  34.0388591482  22.6685047337
H  10.4773415899  34.0330663646  23.5701980328
O  9.8403859404  27.7138413298  19.2448950047
H  10.5547970785  28.3883406288  19.1895432341
H  10.0728029350  27.1373042552  19.9928774730
O  2.3320542474  35.6992981671  30.5208947920
H  2.4187298089  36.6546695959  30.2559506909
H  2.0772662312  35.2093455410  29.6453699802
O  8.0507290736  2.2181807502  29.8759623987
H  7.1195051453  2.4768698396  29.9739907685
H  8.6544172465  2.8989091916  29.4471030705
O  13.9345885798  1.8821501183  32.9517443716
H  14.4158280267  1.2316927808  32.4291222923
H  14.0602586427  2.6681139043  32.4634207802
O  10.0976438810  5.2020594136  7.9898960968
H  9.6802170703  4.7787607056  8.7666257096
H  10.5199228668  6.0082997535  8.2935205120
O  12.4757934013  36.3414059250  24.0451358654
H  12.2465636349  35.4071074727  24.1199631953
H  11.9262010281  36.6330764910  23.2993263875
O  9.3689899458  31.5046141938  1.8366230885
H  9.8575770661  30.6792896142  1.7456919466
H  9.4440609139  31.6545029848  2.8468326682
O  11.5891421768  34.6696568594  0.6411962440
H  11.2092894791  35.3706875644  0.0500294918
H  11.4422454620  33.8717397682  0.0496630065
O  32.9518769493  21.6696904387  3.4626914129
H  32.6897711338  22.4801377327  2.9743144302
H  32.3890053868  20.9331630233  3.1031640542
O  16.9371083062  2.1853785699  19.2375513192
H  17.5948908930  1.4505172970  19.3350544473
H  16.3741812320  1.9892725388  19.9532216188
O  7.5902461430  31.5932989299  31.9185937955
H  8.3163877687  31.5524296919  32.5535734548
H  7.4951390355  30.6613815833  31.7812120872
O  37.0623704058  28.8036836720  10.7352926615
H  37.0272268407  28.0160511335  10.1902721010
H  0.2515461568  29.5579710561  10.2767846434
O  34.4065921387  20.9742910716  33.6022874116
H  33.6651577802  20.6077780167  34.1439850092
H  34.8991232185  21.5995237690  34.2264630982
O  35.9430977464  30.5166774805  22.8411934468
H  36.1995265021  29.5797598574  22.8526971030
H  35.6451665171  30.6192460786  21.9405087065
O  8.7824474152  25.4622713497  36.9614191864
H  9.1342598158  24.7908669689  36.3568217857
H  9.0358257089  24.9796319061  0.5152196918
O  17.3426718436  1.1065141681  13.0270006532
H  17.9370912473  1.6461614268  13.5541726396
H  17.1026600436  0.3082688657  13.5764893881
O  9.2842046096  27.9265559164  0.8612056988
H  10.0490593465  28.4833602133  0.5580149314
H  9.2947966610  27.1521443841  0.2670023388
O  19.3501247835  33.1616937966  7.3337149429
H  35.3905372925  31.0077051648  7.1837203637
H  29.6945586425  27.5151904753  34.8667262273
O  8.6117335322  28.7209610806  13.0131374076
H  7.9270718431  29.1808953524  13.5217708143
H  8.0979747282  28.1393314279  12.3621391856
O  13.5816944816  27.6423731503  1.7688811790
H  13.0457508011  28.3069684384  1.3460614117
H  13.0363113722  26.8030402836  1.6560227059
O  30.1947296220  11.0668759472  0.2522797306
O  15.5837127530  9.2619390921  13.8432681031
H  16.2455107780  8.8710002647  14.4393931292
H  11.5562034026  7.6819919891  10.8273851135
O  34.2967260446  12.7048065857  29.7018873841
H  33.9762932749  13.6023941051  30.0108702362
H  33.7927897433  12.1487692773  30.2868322794
O  28.4308072410  32.5382204136  8.3323538623
H  27.8233648183  31.8171840592  8.1162045643
O  25.2423841605  1.5726338416  30.0363226053
H  25.7714245226  2.1111284412  29.3625456762
H  24.4573026697  2.0328168816  30.2734369546
O  21.5674391241  8.2494733018  34.3881178730
H  21.0969155615  8.4434671892  35.2468630795
H  20.9271767981  7.6348258315  34.0230627241
O  30.6851021636  9.2649481907  34.7574863438
H  29.6923895587  9.2028870207  34.8502556180
H  4.4167978058  2.1754315600  10.5430084092
O  21.9042902797  0.7659871327  10.2368360006
H  21.4272445550  1.4126719132  10.7880047286
H  22.8102351513  0.7684712462  10.6611199698
O  24.9639579314  8.8455448151  3.0845506892
H  25.8235889501  9.2257291311  3.2947193586
H  25.1409537582  7.8819100742  3.2421033296
O  6.3836997877  4.1230403593  18.2405842141
H  7.1804741035  3.9513419236  17.8103778654
H  6.3059491185  5.0776432582  18.2665610748
O  1.0403365362  1.6645049969  15.9416557979
H  24.3535069422  9.7813613810  1.3737715963
H  0.2239345101  2.2371439632  15.8591862001
O  22.4136964915  35.9204920499  7.2305330137
H  23.0297175111  36.2810918640  6.5928405090
H  21.6311921792  35.6811473581  6.6838650002
O  20.1895709580  14.7478381201  8.7149065786
H  19.6460042060  14.0654144958  9.1888498898
H  20.4277178170  14.3311073533  7.8532009151
O  10.6509686885  14.4438419766  4.7050674850
H  11.2784734483  14.6681649387  5.4005977745
H  10.0182278187  15.1199381373  4.8328124293
O  10.8696920545  31.0004693959  8.6254606285
H  10.2684506629  30.2355683811  8.4296655646
H  10.2639354787  31.4143480299  9.2853940173
O  21.5726069053  10.4684356778  18.3150087477
H  22.3505170162  10.8593726578  18.7659333911
O  20.4232260521  13.5837461506  6.0566430177
H  21.3723903341  13.5580924055  5.7258683201
H  19.9592140576  14.1329652487  5.3657256873
O  12.1299133453  37.1292920868  2.7790694865
H  11.8260458827  0.6223167220  3.3020929080
H  12.3753231877  0.1743557865  1.9031044987
O  9.8533088967  2.1764226704  6.8607946381
H  8.9694678457  2.4279559249  6.5533123828
H  10.2239441096  2.1723363582  5.9358665519
O  13.5157559789  11.7512336576  0.8447050440
H  13.8893282695  12.6290463056  1.1172092574
H  1.4738426917  29.7021898983  2.0814834261
O  26.8595020860  19.8195635354  9.7756974760
H  27.6696966887  19.8162158621  10.3274607027
H  26.1771208264  19.4929821283  10.4186359814
O  21.3532305031  6.3327482362  9.3631183019
H  21.3969641231  6.8837003114  8.5824260175
H  22.2118437537  5.9135852795  9.3918727667
O  19.7724446473  6.6456562122  16.3239566571
H  19.5432078064  7.0204533319  15.4173755181
H  20.6424249970  6.2511729208  16.1909925809
O  18.0155866462  35.3758237210  18.7164910916
H  17.7655994617  34.7385630265  17.9954006042
H  17.5429532044  33.0476540527  6.4534122941
O  17.4509623025  0.4949249815  10.2553244118
H  17.7412536515  1.1900012417  9.6926941788
H  17.7194868289  0.6959275672  11.1582032033
O  35.7658256550  11.7296665279  8.1402408522
H  36.6720515574  11.9260618693  7.8684804172
H  16.6483967940  32.5447165643  4.2015387259
O  27.1947965340  11.4830083726  6.6517304916
H  27.2259867627  11.1094099262  5.7189417774
H  26.6382614679  10.9248346741  7.1892776749
O  6.6045769919  7.3932356397  14.3020649217
H  14.4427526319  1.2995338690  5.5837428295
H  5.8062072810  7.8203226270  14.7088834387
O  17.4932836726  14.8472741596  34.2451121464
H  18.0825566161  14.1606844653  33.8846001299
H  17.0130496698  15.2196323777  33.4960121147
O  10.5785032243  0.9312976417  34.7289575067
H  10.2856980711  1.8290807982  34.7930431693
H  10.0203145778  0.5217141736  34.0766169866
O  21.7818141713  7.7488487708  7.0191726034
H  20.9662276477  7.8233469036  6.5290437589
H  22.1558343151  8.5925610733  6.6946960953
O  29.2027004676  31.3751917690  22.2978709138
H  28.3066940961  31.7896639443  22.6310337869
H  9.1292785075  9.8682834056  33.6786555219
O  30.8272524589  9.8759619045  8.1760556986
H  30.1360270018  9.2093774238  8.1514043553
H  31.4703359036  9.5738707426  8.8678632639
O  8.2754303910  9.9150734799  4.3080774299
H  8.4572597309  10.1300202669  3.3316778704
H  8.5558825888  10.6817312982  4.8145305950
O  29.6861488215  15.0705786449  14.1562431173
H  29.2940086048  15.7716801011  13.5951941072
H  29.0421235326  14.9746909147  14.8654487410
O  18.8649170675  12.6162559371  10.0663474208
H  15.5295433404  1.0420746590  12.4375251042
H  19.0976491381  12.6784737785  11.0140710101
O  16.5561727641  16.3223302795  4.1774403516
H  16.4919551137  16.2508181931  3.2439273557
H  17.2734619428  15.7638583041  4.4457604223
O  19.1070792056  6.0589874478  1.2667605687
H  18.7855227633  6.2967341491  0.3759301607
H  20.0755961360  6.0828997225  1.2343467636
O  9.2532319788  4.8632721196  4.8402208776
H  8.8064746861  5.1255721968  3.9612910478
H  9.1104357037  5.6368291885  5.4594303501
O  28.0655840957  4.4875282949  7.6977949261
H  27.4685225476  3.9777736562  8.3270274247
H  27.4692076349  4.8385843013  7.1078853133
O  18.4685687586  2.5714119409  35.0775597414
H  18.0208641096  1.7349298914  34.8281900938
H  19.4738950762  2.3076456971  34.9093607338
O  14.5968268826  5.8756348955  7.0590083095
H  15.2684807667  5.1495627671  6.9706524863
H  14.7138305420  6.4800703200  6.3138352381
O  15.0853036934  9.4937536846  2.7031286989
H  14.7215218488  10.0583803835  1.9913512529
H  16.0437910322  9.6471435543  2.6406988352
O  19.7026605199  8.8535127248  26.2208197938
H  18.8527378046  9.1910932840  26.6180623843
H  19.5114073910  8.9441336333  25.2405823831
O  16.4607046069  13.2210722368  24.0910776799
H  16.1959560759  12.9041885488  23.2324782499
H  16.3737138890  14.1251675601  24.2076384840
O  16.7207107551  30.3656998025  0.8720816575
H  17.5898738025  30.2607092375  0.4043555121
H  16.1117447860  29.9424012991  0.2556468341
O  8.8931228515  34.6673429750  2.1175552369
H  8.2715154309  34.0124764987  2.0824426909
H  8.9054942930  34.9130709613  1.1221751573
O  8.5177137255  11.0324542694  10.3610924522
H  8.4691303915  11.5695905367  11.1502495141
H  9.4316664969  10.9783374942  10.1521665843
O  14.5362151952  1.8648720163  2.2538334792
H  14.2669039626  1.2399228076  2.9240419716
H  15.3501983466  2.1671628255  2.7204643123
O  27.0377844567  1.3636079717  32.2094638583
H  26.2733610621  1.1995466895  32.7815085270
H  26.5133272230  1.5332236091  31.3685642823
O  23.2688550883  30.6271009937  27.2965054430
H  24.1247190600  30.7401569677  26.8413091314
H  23.2731054581  31.3895911471  27.8877859143
O  23.7109400983  4.8083139658  9.9098825306
H  24.3454796564  4.3760594101  9.3602445679
H  23.5618402544  4.2852705751  10.6951683699
O  20.0686328408  30.0291794326  30.4091704662
H  19.2043849237  29.8987400259  30.7392020081
H  19.9475722080  29.9585664503  29.4515300887
O  14.6859065396  13.4855952361  4.2342397540
H  13.9848598909  12.8992633803  4.4921794382
H  14.6006251635  13.7568291861  3.2882387441
O  14.9602176628  1.4602129232  8.7692839039
H  15.7573523497  1.8296468990  9.1382284123
H  14.7193189278  1.8292023323  7.8817043053
O  8.8395001576  20.5155155324  15.5097327855
H  9.7042266804  20.2331933287  15.1369147661
H  8.1988472109  19.7695990841  15.3480851649
O  6.7107547005  14.4448500948  5.9757206459
H  6.9236665721  13.9389935730  6.7519903964
H  7.0271502246  13.8987162548  5.2277450523
O  7.5895889630  33.8608149248  36.9215345870
H  7.3327946460  33.0845711200  0.1781613545
H  7.2009655441  33.6273836091  36.0791856307
O  10.4194362581  27.9297284693  33.5466905132
H  9.9435330307  28.6255492515  34.0060147844
H  11.3104908830  28.0155308425  33.7140514223
O  3.0218988258  10.2544892409  11.9770548628
H  3.7100127083  10.8117371915  12.3704451103
H  3.1693746639  9.3536405756  12.2578895952
O  19.3976509490  18.7321827891  13.8001054903
H  16.1464937665  35.4190962939  2.3609159945
O  24.8910812572  5.5008850502  23.3789671990
H  25.2616270202  5.0657008728  24.1300350105
H  24.1602179144  4.9622149048  23.2297678606
O  29.0448496985  8.3613108398  0.1733357386
H  29.2029494836  8.2393161105  1.1326562876
H  28.1098103927  8.2048855423  0.0605850519
H  33.2835569981  8.4683457593  18.6506276161
H  32.7781027509  9.8829001897  18.1553103127
O  19.2837960406  19.4646026904  2.7167317564
H  19.3353562068  18.7158980935  2.0954192181
H  15.9692769584  10.1256001002  13.7537005915
O  6.6818954324  30.4361210559  13.8351958595
H  5.7002881618  30.4935396958  13.7262117646
H  6.9801174628  31.2995639348  13.5535544096
O  14.1089579178  5.9448470094  16.0176669953
H  15.0034864975  5.9124998653  16.3432279775
H  24.7107954955  9.7893012155  7.0533120065
O  28.1007240472  8.6326011638  11.0539488344
H  27.8620773150  7.7061492936  11.3449058577
H  28.9251664120  8.8858547901  11.5241058689
O  18.0413309544  23.6912770818  20.9288850723
H  18.3893580959  24.2144134187  21.6492978349
H  17.5834104441  22.9078586117  21.3426933211
O  26.0746245035  19.5392203228  16.5190549883
H  25.9658532207  18.6298668514  16.3229487472
H  17.9050049010  24.6200314550  19.3054881649
O  20.0255343441  8.1607178914  18.5409865443
H  19.9895615162  7.7473192523  17.6025278412
H  20.6832239762  8.8634115705  18.4848824482
O  1.9467474370  36.3784839680  20.2358273726
H  1.5164618105  36.3999400006  19.3587021983
H  2.6650829932  35.6668232300  20.1747814637
O  18.5744025750  18.7305268086  17.2435376379
H  16.0775664805  11.7579670835  16.2459440046
H  18.7498745035  18.9238217865  16.2960336764
O  23.8194091177  36.0610317684  16.2881649662
H  23.0692027096  36.0516342260  16.9659558285
H  24.6179311793  35.7929695064  16.7289708469
O  33.7889328488  8.5622106519  33.1309164242
H  33.5924726910  8.8612149457  32.2131465224
H  33.2954057131  7.7249279294  33.3389018506
O  9.5262088598  14.0960512599  30.9844695198
H  10.4026186781  14.4069531694  31.2589138014
H  8.9337734856  14.8774956329  31.0594989643
O  15.3888830575  35.9693122578  8.0335503951
H  15.7978456258  36.0485036291  7.1708469191
H  15.5376822585  36.8994314653  8.3516309475
H  21.5459273926  11.9587789421  27.1539617620
O  21.7931513643  18.9210507341  20.8319512649
H  21.7605373900  18.7788745174  19.8609879115
H  20.9211890230  19.2630476966  21.1283907296
O  24.9490221349  35.9238885402  29.8679952795
H  25.5639338955  35.8752668571  29.1393514165
H  25.0058797778  36.9127319532  30.0592211399
O  5.1121742730  12.4654334100  17.9964695751
H  5.0135937871  11.8771148241  18.7869392323
H  5.6292696316  11.9232036289  17.3849875811
O  1.4947530324  30.6106279638  1.7891953802
H  0.5874416809  30.8671150627  1.9374244717
H  17.4915645782  2.9065220939  30.5912505982
O  10.5061204260  14.9174713850  11.4884425387
H  9.7644012306  14.9785454939  10.8198089745
H  10.0481962274  14.4894651886  12.2435045697
O  31.0360999435  17.3165665476  2.4575731376
H  31.8506886715  17.1148003116  2.8842356092
H  30.6805380915  16.5568872533  2.0091314791
O  28.5554036028  18.9777255029  21.6872807115
H  28.4531464930  18.2728324978  22.3566089778
H  28.4379801356  18.5798207249  20.7522297480
O  11.5577228473  33.6118698986  28.3279117580
H  12.4516144165  33.4183346527  28.8103595850
H  20.7122534134  26.8289301067  19.0664089165
O  12.5528788405  14.2334136447  14.8678565027
H  12.4507820223  13.9331523230  15.8152041519
H  12.3577059670  13.4346317190  14.3397303629
O  8.3174192194  28.7173730298  22.6986369268
H  8.3290352101  27.7568565469  22.6295236710
H  35.3164527565  12.5358686809  8.4245141824
O  19.2283686816  7.6257191872  13.9792541070
H  18.4820487430  7.1801338592  13.5277891385
H  20.0736194959  7.4048700061  13.5605662163
O  14.3832005040  2.0539416969  6.2233164675
H  19.9782161717  11.0409612389  36.3519812769
H  13.6146234104  2.6109030667  6.0244648345
O  18.0393658738  7.7494841717  3.4031784474
H  18.0506612407  7.1416606639  2.6651375815
H  18.0109743410  8.5932461195  2.8929428973
O  12.5151523697  15.1014278561  6.5962281897
H  13.4578409335  14.6888453410  6.7217917618
H  12.8332958108  15.9645170204  6.2724838580
O  19.4420914846  11.1872075756  20.2359462300
H  20.0874561013  11.0767184453  19.5539085953
H  16.2755605646  35.4720624162  11.8011243725
O  6.1698522044  1.3794003541  19.4729911124
H  7.1889910874  1.3078806552  19.4648721649
H  6.0280626813  2.1470246846  18.9542378114
O  19.3980119369  13.1191552754  12.8770320131
H  18.5988433180  12.6221043673  13.0503258308
H  20.0734438519  12.7076426830  13.4967129738
O  19.2789434591  19.7442789565  21.9710151210
H  6.2018635212  34.1874764941  30.5872161174
H  19.7328227268  19.8319227670  22.8164602971
O  10.8410379507  2.4787715946  25.7701411934
H  11.6537581285  1.9800153680  25.5801305571
H  11.1067755338  3.3327123150  25.3815733597
O  23.7280389040  6.3387300088  13.5099266737
H  24.3908316752  7.0368299818  13.4318693797
H  23.5055760758  6.1794689326  14.4395242509
O  24.4005575315  36.2566882790  0.8360404998
H  24.6890967041  35.9465864737  37.1979831827
H  25.0636178385  36.8542893405  1.2005553832
O  23.2457033241  20.1726301499  17.0329989573
H  22.6991191882  19.4535691063  17.3648335488
H  24.0902390835  19.8422511193  16.8254176603
O  25.9330683994  4.4982313045  25.7713381942
H  26.7261735327  5.0212868418  25.6614969131
H  25.3341564396  4.8723329335  26.4855029226
O  11.8640350110  11.8122156963  7.1845856938
H  11.9508031623  12.3387648382  8.0023435732
H  12.2566953891  10.9434245286  7.3232910651
O  11.4877292219  7.8082935646  27.9846295486
H  12.1050450955  7.5110650302  27.2792334804
H  11.7721416000  8.6950521866  28.3017629476
O  23.1964525986  12.7557392578  22.6785178416
H  23.1306451090  13.6914235583  22.8146685586
H  22.2644771496  12.4158390411  22.6230782153
O  12.9312461708  4.8289561912  3.6723205100
H  12.1425560403  5.4624536456  3.5063748576
H  12.8897478345  4.7066474837  4.6558172263
O  17.5359928052  8.8350656840  15.9070621839
H  18.4933637726  9.0081780484  15.8025398947
H  17.1296858890  9.6728314847  16.2581317624
O  24.4404459795  1.6440122492  14.2589930509
H  24.1512580494  2.3296918918  13.6858169756
H  24.5844244999  2.1284134861  15.0955393980
O  11.8026913318  11.9317073349  13.6916402156
H  12.4355167868  11.2971302402  14.1548458694
H  10.9004083716  11.6835442153  14.0692833814
O  27.0681532589  14.3916615203  29.9242964416
H  26.1426242350  14.5714995426  29.7112011312
H  27.5135284083  14.4667819281  29.0788600529
O  21.6328405420  30.7365980297  3.3005917238
H  22.1650371605  30.0554447736  3.7870251416
H  20.7833344472  30.3908378660  3.3032198351
O  25.7100630316  7.4041956726  21.5894148323
H  25.4057005564  6.6699399689  22.1206129610
H  26.6536017869  7.5758743409  21.8216924517
O  9.9478861223  32.2353047522  19.8157588557
H  9.7612314609  31.7014215087  19.0000028289
H  9.2160090202  32.8783187764  19.9568621862
O  25.9635599428  0.9883760352  25.2042259888
H  26.5475687510  0.6301451468  24.5271795693
H  26.1494495440  1.9901889727  25.2541163523
O  13.8813430063  6.6237641611  13.2044974354
H  14.7757866225  6.6513478635  12.9609440801
H  13.8680922340  6.4515326497  14.1645024980
O  24.6771832607  4.8399041800  28.4595078917
H  24.1719933111  4.0106989934  28.6708936193
H  24.0563378031  5.5774825251  28.5577160457
O  15.1528081809  17.2546652291  20.9200201834
H  15.2074567232  17.9020249357  20.2007541601
H  14.2466365433  17.3465837735  21.2094414816
O  4.5530791185  20.0148927554  20.4172846404
H  3.8096029681  20.3297063341  20.9842037614
H  4.8743554509  20.7970400658  19.9575376867
O  17.4123920778  9.1001571378  19.6737618001
H  16.9981762557  8.4294379966  20.2390043074
H  18.0679542208  8.6207583623  19.1487147246
O  9.3743771095  4.8442434373  21.3598463776
H  9.7448207289  3.9622766411  21.2121570090
H  10.1274675936  5.4455227880  21.4905817027
O  14.3775615333  21.0029380801  11.1029408920
H  14.0692546934  20.1548756186  11.4196711475
H  15.2221215709  20.8217707496  10.5960322279
O  35.2934151865  9.2501611098  21.3535849596
H  0.9722174733  20.6212457611  29.4458273174
O  23.4415568186  0.0749434880  20.1684265575
H  24.3553168450  36.9540234266  20.2180069026
H  22.9388331769  36.6109061923  19.8208351200
O  21.3216721813  0.0515740759  13.6960993790
H  21.2884441238  0.8313467610  13.1655963337
H  22.2378915496  0.1936627989  14.0878888584
O  26.8354589057  12.1485428539  16.8393539940
H  18.6895137529  33.8880006895  15.6899152183
H  17.2453158647  34.3942327868  15.5107166142
O  10.8090495047  7.7976244549  11.4457407012
H  11.1329153061  7.9978380897  12.3422880608
H  18.3936690939  19.3463885542  3.0987766101
O  20.3952297375  10.6089287108  14.0468034245
H  21.1321112425  10.2244488060  14.5702257357
H  19.8523555901  9.8440998332  13.9132391721
O  25.0154029458  34.2046853414  21.5579737810
H  25.6011511351  33.5032019894  21.9685601659
H  37.1624572994  3.7694150020  32.5920902865
O  36.8614220677  34.2434786705  28.4312345033
H  36.3526281897  34.9635810812  28.8466298180
H  0.4764289314  34.5203402556  28.1299968400
O  20.6965225545  2.0088282431  26.2252738206
H  20.1057822369  2.3865676576  25.5911097565
H  21.5719566042  1.9613818835  25.7756468535
O  23.8032952025  2.8896467881  34.9822338218
H  24.2173718639  3.6445752815  34.4441812638
H  36.4409998330  12.8799003619  36.4293120448
O  15.7352029913  9.9420463208  34.1217285514
H  16.2862599288  9.3507455466  34.6668569552
H  14.9565702803  9.4060130433  33.8799306125
O  11.6461304024  20.2045869457  32.3530349804
H  12.2154978911  20.4099440870  31.5622323561
H  10.7624896295  20.3073206548  31.9807240975
O  23.1075142765  28.0868611794  28.5491478195
H  23.0967510756  28.9906743111  28.1405794038
H  22.5874775044  28.1578471728  29.4005935012
H  28.1322171612  16.2809748912  26.8409744166
O  23.3197744265  8.9572330398  26.7042908072
H  22.8771173182  9.8268556454  26.8289236046
H  23.6423915853  8.7741708788  25.7965126582
O  24.4330796620  15.8470825718  30.3728466300
H  24.1861577858  16.4397680622  31.0676901163
H  24.4089128055  16.4597850783  29.5980490944
O  21.0779394342  32.7147577231  30.8505848501
H  21.5652426119  32.8076619428  31.7089398398
H  20.7462536815  31.8352065126  30.8307201809
O  15.3385861228  1.1692076625  16.8501731190
H  15.1172341050  1.7892569521  16.1485163540
H  16.2591803073  1.3551958335  17.1186702688
O  19.5175373346  7.9588288956  5.6081726845
H  18.9549771260  8.1717673626  6.3401873433
H  18.9668437156  7.9453621990  4.7997589898
O  15.7707709873  5.3090080711  19.5402916686
H  15.7860835446  5.9119278089  20.3488278745
H  14.9010777277  4.8870463076  19.6155237916
O  15.6708676484  5.6329996338  34.6343603855
H  16.5308125399  5.3314075565  34.2928060722
H  15.9580315263  6.3659776838  35.2316457589
O  16.7763425513  3.0917097379  31.2344342471
H  17.2439035980  3.5797387832  31.9501381557
H  13.6337194889  11.6931641350  37.1781405810
O  27.8377509748  16.6199642732  36.0917257527
H  28.7258008404  16.3379762781  35.8604441523
H  27.9460364772  17.3793053494  36.6454527941
O  16.5293770041  18.8133274725  34.8858772225
H  16.2680979601  19.6221539983  35.4124255667
H  15.6796961324  18.4936818262  34.4895102737
O  4.0190486820  10.3574207256  36.9105651250
H  4.0153280008  11.3388801537  36.9660033340
H  4.9421264981  10.1396608826  37.2455970589
O  19.3883725371  11.0344038580  6.4897947825
H  19.6997199201  11.9313017897  6.4519422511
H  21.1192125463  36.8608510785  22.5728863805
O  13.0857095462  4.7025072915  19.6963014924
H  12.5418872728  5.4871943989  19.7263233821
H  12.7126463516  4.2342928269  20.4569741656
O  16.1078740949  32.1188279005  3.5438369815
H  15.1833724438  32.2577916879  3.7244259064
H  9.1344362181  29.1268387122  22.3131797215
O  24.8186161309  8.3369451877  24.5914945104
H  24.7838523646  9.0972688882  23.9481274867
H  24.6942786166  7.6011717259  23.9870026425
O  19.8399505842  12.0224088219  36.3338960671
H  6.3610852539  6.7107386229  13.6767262934
H  19.0830546681  12.1599283899  36.9249719667
O  26.6346288360  0.1259316967  2.0229297869
H  27.4773403708  0.3581929176  1.5909812656
H  26.1372425901  0.9850805941  1.9794379241
O  7.8918372092  13.7498000780  16.2468115366
H  7.6708609827  12.7760626052  16.3446026790
H  8.6091383854  13.8290588266  16.9184828227
O  11.9055638213  17.9671946248  17.5365114697
H  12.8610031312  17.9084501023  17.6449045659
H  11.7197139395  18.9184663931  17.8873465391
O  10.3437952965  28.9091175584  31.0909396454
H  9.9319832867  29.7718870217  31.1827883691
O  20.9509517407  14.9929739577  28.7127090887
H  21.7307237100  15.5473705024  28.6522152383
H  20.3091308658  15.5404851654  29.2079882757
O  16.6921272168  19.4317270872  13.8931668161
H  17.5392933105  18.9384645244  13.8141399639
H  16.0274402063  18.8686896862  13.5485848545
O  21.7444184897  13.8160168058  0.2358380686
H  22.1415540383  14.5326862795  36.9841949997
H  21.1578607157  13.3454142458  36.8829516682
O  17.6221524865  7.0594967749  7.6542952377
H  12.3282974542  30.0647522440  8.8594930792
H  16.8946633855  6.7607531242  7.1485656102
O  25.7655056557  1.1913199065  6.5347266591
H  25.9643352320  1.9150711584  5.8782479653
H  26.2289052582  0.4219811603  6.1047110709
O  16.1056752338  13.3983330519  15.0599245096
H  16.8428346119  14.0222113611  15.2418620560
H  15.2633449487  13.8645838326  15.0107417416
O  20.1384936354  35.8685536855  33.8514864534
H  20.2512869756  35.4674665772  34.7366806024
H  20.6367807661  36.7456497773  33.8382560189
O  17.2019237508  11.8169819738  32.2119777549
H  17.8082956736  12.2566640503  32.8976956036
H  16.5546453013  11.2370075398  32.7544163654
O  23.7683729878  11.6714554717  19.8763146785
H  24.1593384941  12.1596671067  19.1571659890
H  23.4382246236  12.2270576689  20.5984204608
O  13.1523226908  8.9331331247  33.2272183896
H  12.6697877309  9.5079804080  32.6115182373
H  12.4570282188  8.4719084410  33.7627170872
O  15.3563143366  13.5470218794  30.8304242908
H  15.9183093624  12.8887218154  31.2673783929
H  15.5880991510  14.3783024419  31.2749518782
O  20.3594261082  36.7533464111  27.3443062871
H  20.5540618819  0.3748863390  26.9909408171
H  19.8146011383  36.8679765926  28.1105445840
O  31.3258860126  13.1073789844  35.5440153094
H  31.0095768792  12.5727091396  36.3103534302
H  30.9956127009  13.9783320157  35.7833625436
O  19.9954077086  6.0070575534  32.8699369290
H  20.8081203531  5.5984835969  32.5495899587
H  19.6916952730  6.6291342629  32.2245168551
O  28.7613502988  16.6011996237  23.1140717835
H  28.8165100364  15.8600241896  22.4590382042
H  28.0842258574  16.2618663378  23.7620854409
O  15.9945554351  15.9162182054  32.0734068650
H  15.4257461647  16.6315059935  32.3520387365
H  16.2035449273  16.2501442656  31.1976441970
O  23.3467385613  1.4187009135  24.9362378136
H  22.9985025155  0.7744922290  24.2700114395
H  24.2604959064  1.1654521922  25.0278512090
O  19.0435525612  7.0536338575  22.7616305098
H  19.7142706800  6.9782288556  22.0371587271
H  19.1653731912  6.3694209377  23.4341841229
O  14.8901677897  32.5077629650  11.7535126463
H  14.5560488802  31.5666459781  11.6993327975
H  15.0531549258  32.6934764882  10.8303610419
O  11.3853746182  33.6040475442  6.8845115435
H  11.9626165887  33.4729596671  6.0749343163
H  11.1903519250  32.6790609601  7.1162893475
O  11.5726688170  10.1775468224  36.0170663436
H  12.2269634563  10.7857147172  35.6340925361
H  11.5885611671  9.2793354669  35.6983953486
O  10.3886770382  16.2535663065  0.0029126276
H  10.5872110727  15.6950610305  0.7959455312
H  9.6466755163  15.7641592655  36.8606892896
O  13.7476565326  11.8024481219  35.1568906355
H  14.4413009702  11.1344620191  34.7962760100
H  13.6120873415  12.4274547418  34.3940518095
O  17.9093998582  33.8132437213  28.1919972938
H  18.7909908950  33.3710244216  28.0325493008
H  17.7161394505  34.2459642176  29.0834908204
O  3.7009317924  13.2593448027  37.0046198242
H  4.2453168708  13.6926189705  36.3211662462
H  3.8753577563  13.7854283127  0.5597847278
O  9.7100573973  25.2356451421  30.4352458304
H  10.3725783014  25.6016959411  29.8686753558
H  10.1470857454  24.9893807673  31.2584438063
O  13.6735000919  3.0145599713  27.3397897010
H  13.6395316878  2.5398440660  26.4718075181
H  14.6520193831  3.0565512043  27.4811845062
O  19.0030891085  4.0651279001  20.6410364993
H  18.1248417449  4.0409363816  21.0316975672
H  18.8601751512  3.7464839351  19.6759847618
O  36.5247431491  9.2190746675  33.2246699962
H  2.3167935945  19.8552530651  28.9318348706
H  14.9650743067  34.5661826245  2.8500409372
O  19.0885600165  3.7916575506  17.8102106574
H  18.9606656537  4.6497339276  17.3905907344
H  20.0675111971  3.7683960245  17.6913775500
O  15.7550488834  31.1040419458  31.0421034746
H  15.9957533735  31.3661869513  30.1808080496
H  16.2989447247  31.5648545870  31.7128447450
O  13.9068461543  22.1625064556  35.6173730503
O  28.5926556159  24.2459517798  14.7088462305
H  28.8633794796  23.5273300784  14.0802341835
O  12.2394990388  23.5176994436  26.1497548820
H  13.1352636846  23.4981515648  26.5746302267
H  12.3370883282  24.0600218539  25.3846821060
O  13.6804093162  15.9026533647  35.8204473117
H  12.7523521093  15.6198873110  35.6027627645
H  14.1660841580  15.0717034887  35.8344291947
O  27.0652789520  30.4518372284  31.1615176276
H  26.6642637969  31.0916517657  30.5719936461
H  26.5810448070  29.5960041164  31.0905451003
O  27.5525099104  33.8289125980  10.7330229319
H  27.8412454628  34.6184307321  11.1365151775
H  7.6759755797  11.6937684922  9.1689227226
O  12.2816435856  17.1823537820  10.2441035560
H  11.6206015075  16.4349845496  10.3162692484
H  13.1011718160  16.6666326064  10.4316885005
O  19.8662580694  21.0466239646  6.6793822361
H  19.0001244539  20.5898202133  7.0067197173
H  19.6358454282  21.8789529771  6.1924288274
O  13.1411774636  7.2886037161  23.8268576611
H  14.0970156682  7.5589262234  23.6628227505
H  12.7160431956  8.1190523959  24.0546341314
O  4.9226142558  16.2451227272  3.9326817243
H  25.0293493275  23.2578376717  10.8851040345
H  3.9641615048  16.3114079201  4.1482160800
O  23.9913401050  17.6295623620  5.3993732914
H  24.6337144456  18.3517451073  5.0369766996
H  24.3922124699  17.0621541493  6.0401055229
O  23.5936996456  15.6565178993  3.4426112293
H  24.5031813100  15.6682941368  3.1573204496
H  23.5861261423  16.4522613382  3.9658776600
O  4.0816944197  13.7353584096  6.1493121023
H  3.8053132498  13.1779429291  5.4074726747
H  5.0137740436  14.0605356275  5.8580632775
O  15.7580791391  24.4392819431  1.3612937268
H  15.6460604787  24.3393969958  2.3429871519
H  15.0204468416  23.8775336085  1.0656598622
H  13.8047783268  22.5015988487  18.4557606883
O  14.9039721751  14.2286124250  7.1389706481
H  15.2541331990  15.1164377922  7.4971670771
H  15.2008909243  14.1432513954  6.2707154948
O  6.7945066066  28.1372486236  27.7075506369
H  6.9271271753  27.5637183271  28.4860778902
H  5.9115758547  28.5002905684  27.9817750611
O  11.2864357986  12.0912762689  2.0611669112
H  12.0202137187  11.8064319353  1.4728633309
H  10.6168419451  11.3957293118  1.9094840418
O  18.8712122267  18.4340884731  10.8792307806
H  18.9974877920  18.0183573311  11.7167973217
H  16.6350178736  11.8854348981  11.9476577904
O  26.4408967591  19.9760764677  25.3937850159
H  26.3874449190  20.0852663111  24.4421706063
H  25.6170366017  20.3594035755  25.7597934244
O  25.6377148661  14.8791416193  36.6497058219
H  26.5224474122  15.1868350778  36.3985898664
H  25.7112021044  13.9116099322  36.4349132998
O  20.3982999992  19.6999708493  24.3243287346
H  20.6302514003  20.5359105740  24.8129906912
H  19.7432101297  19.1427290489  24.8607378760
O  21.2609812487  25.2273647836  14.3812433373
H  21.4020817147  26.2067749593  14.2548556548
H  24.4511557028  21.9008139931  31.3778058082
O  3.3841673034  11.9424797668  3.9272855711
H  3.8987872208  11.1506668071  3.7260654656
H  2.6057665074  11.8553400818  3.3588023104
O  6.8619173333  18.6464635107  23.5980247739
H  6.3971733903  18.2385615951  22.9032248724
H  19.3765169768  23.5753666443  31.4291931600
O  30.1946944182  16.7080568484  32.8759688913
H  29.3320133252  16.3834342648  32.6360041718
H  30.3533518665  17.6479075677  32.6833948950
O  34.5281145973  14.1109373291  9.0335889386
H  13.2832169419  6.6810257713  10.3935420802
H  33.9932179996  13.5666496135  9.6567925989
O  8.6688259915  10.0050918774  35.4919303843
H  9.5900814079  10.3135596099  35.7071541812
H  8.4891665462  9.3777975758  36.2225496429
O  3.1228648884  10.9159283480  9.2686705017
H  3.0269989326  10.2787873474  10.0372416190
H  2.8420438425  11.7619269193  9.7177982219
O  26.5429975774  21.0652858920  13.9490133372
H  25.8118706516  21.6580381047  14.0855486391
H  27.2790534679  21.5584887992  13.5690267403
O  29.5866143659  8.3783484371  2.7859137242
H  30.3625349946  8.9656758914  2.9249062795
H  6.4625142447  13.2233617134  12.6058713313
O  20.1519954121  26.0384827823  2.1491585289
H  19.7487095253  25.3050311021  1.6047875648
H  20.5849990692  25.5905914409  2.9013857839
O  9.2650064588  31.8681170629  10.7465876971
H  8.6413301153  31.1456760958  10.9159843485
H  8.7506367252  32.6764749131  10.4894927182
O  20.0199534534  15.5890037261  12.1232877644
H  20.5444962189  15.7467267400  11.2805511073
H  19.5812073260  14.7323016226  12.0820749006
O  22.5098631187  22.3355965081  10.1069883995
H  19.0660277458  11.6811877426  9.8839514102
H  23.4147857804  22.1059793457  9.7911281154
O  36.8862476799  5.7313448411  32.7968650112
H  36.5681404845  5.7881493516  33.7183371805
H  36.0892899008  5.5362951491  32.2874095857
O  24.2832729654  23.9161089204  2.5325649388
H  24.1784485928  24.6485702055  3.2246492266
H  23.3867827165  23.6702990123  2.0523236216
O  18.4312493843  30.9158624477  10.6442652430
H  18.0850520416  31.7438471387  10.2673167143
H  18.2279409626  30.3123315770  9.9130746601
O  24.3771660630  11.4604785359  9.8500706399
H  23.8836771124  10.9522442071  10.4489907115
H  24.5871732043  10.8270012694  9.0870531996
O  20.0659614582  21.8647289372  26.0932177637
H  20.6799886360  22.5297462777  25.7981377765
H  20.6069867394  21.2895388891  26.6927534406
O  7.6369862282  18.8841884486  19.5512282806
H  8.4872116727  18.8644282824  20.0217707898
H  7.7288127420  19.6868726883  18.9952562369
O  32.4146028134  15.6414202730  15.9431942453
H  33.2564969833  15.4993755147  16.5337403069
H  31.6634042332  15.5788039631  16.5769754122
O  18.8272427077  24.1798069075  0.8608851460
H  18.9648806130  23.3253954513  1.3175172320
H  17.9004724036  24.3558040948  1.0829135757
O  28.5623520704  37.1165438808  6.8868334073
H  29.5134000711  0.1201605271  7.0881839877
H  28.4154000221  37.0878012637  5.8995818623
O  15.7712342742  18.2913716431  5.5821949776
H  14.8684267458  18.6114870539  5.4101031427
H  15.9488826292  17.5844017293  4.9603272491
O  36.6829022912  8.4098013296  18.9628834513
H  37.1254516068  9.1963352007  18.5330762284
H  35.9419455862  8.1054785420  18.4310675550
O  15.5167368879  11.1503577536  7.4389087373
H  15.0147346872  11.8133139121  6.9374588358
H  14.8661411702  10.3751745013  7.4581699799
O  36.4760513933  3.9687597718  3.9328982040
H  36.9772850530  3.5808896365  4.6747523601
H  36.6720282257  4.9352705135  3.9494514385
O  19.2763258899  28.5657888358  3.5029917999
H  19.6419943372  28.5120169762  4.4366208005
H  19.3235855119  27.6892419146  3.1149502689
O  32.6552581635  3.1492024720  25.5617882787
H  32.9942689820  3.6911978735  24.8502321560
H  33.3607659285  3.0286495350  26.1808248313
O  22.4417820864  18.4387086453  0.0384830063
H  23.3315673708  18.8496993071  0.0891522060
H  22.1554228667  18.5461637073  0.9647572666
O  19.4460525240  10.0053735273  9.2284856524
H  20.2452334677  9.5808868220  9.5289539106
H  18.6534259307  9.4656223776  9.4546109060
O  28.6855675315  36.2892143604  35.4929565057
H  27.8364424832  35.8286893931  35.4934759057
H  29.0135715589  36.4643891092  34.5731749751
O  14.8197250045  25.3661199903  9.5241087102
H  14.3175815838  24.5377335104  9.5974988786
H  14.6542241118  25.6688329019  8.6171811998
O  14.9298687656  8.9833027562  11.1258184745
H  14.6348985288  9.8938661780  11.1883345003
H  15.1405864526  8.8905605185  12.0763863076
O  22.4655130338  25.3117366143  11.8877124038
H  22.0291330805  24.8380893265  12.6496150966
H  23.2754024929  24.7903111606  11.7549122373
O  15.2525355467  3.5730314195  36.8150433049
H  16.1673486101  3.3640788719  37.1924471607
H  15.3327964174  4.4098260441  36.2695044907
O  10.2921565123  23.8723299469  34.9147279144
H  9.6013539240  23.9098545346  34.2057454704
H  10.9480072497  24.5594139036  34.6352712761
O  29.6642641593  0.6127969421  3.6777725886
H  29.1363031582  1.3987044024  3.5809428270
H  30.5417617550  0.8565091351  4.0262297485
O  15.6060922913  26.3865487832  14.7203583586
H  21.2054659520  19.8777517274  7.1164884813
H  4.6408496875  29.2122759350  0.0847357945
O  24.2030338338  12.8121529316  17.3718240481
H  25.1899211064  12.9702292158  17.3676652211
H  23.8194166875  13.6898315103  17.4538498238
O  31.2362958692  13.0731856447  23.7736724053
H  12.3335912901  14.2545322913  8.7283373232
H  11.5061875029  13.9391533259  10.0295755689
O  12.9294138286  25.0238539727  23.9077418282
H  13.4969924651  25.7220619081  24.1665587711
H  28.1817298212  23.8445921466  15.5186958691
O  5.1865559223  11.9293518352  12.8851828406
H  5.4376732692  11.4679530819  13.7657699608
H  5.6238276303  11.4703642613  12.1294346293
O  25.2070185278  9.8791353827  7.8775401883
H  25.3041279313  8.9569170544  8.2017304625
H  7.2313030552  17.2515518950  17.0984470446
O  23.4693860318  9.8637116221  5.3671311097
H  22.7585420976  10.3069590151  4.9581157831
H  23.8541482198  9.5125051576  4.5807772959
O  23.9358007159  23.5714139410  21.1760896290
H  24.9004284315  23.5627840685  20.8345980951
H  23.4124650515  23.3635642331  20.3841771867
O  21.6392769368  18.4569399463  17.8413674876
H  21.8495555089  17.4994710651  17.6604669824
O  13.4033924605  16.2514376754  29.5394366982
H  13.2383705437  15.2929412158  29.3612677984
H  14.0460524852  16.5354713328  28.8669113627
O  8.9724787419  1.1133368681  24.0492286887
H  9.6484881316  1.5882847669  24.6017283444
H  8.3919767507  1.7058936236  23.5469586115
O  17.9896922927  20.9529254790  18.4766380245
H  17.4586203685  21.6774281183  18.0777725403
O  22.9400005546  18.1631625812  23.3771566935
H  22.4537843426  18.6979026861  24.0851804607
H  22.3372728764  18.3423313460  22.6185806637
O  26.7938270194  27.7616708851  10.1680461509
H  27.0090093059  27.0980470846  10.8407449446
H  26.2156752070  28.3592843085  10.7258745736
O  28.9025205393  22.3669019405  12.6456991442
H  28.9667020757  22.6429975301  11.7187697166
H  29.7671001685  21.8327474007  12.7983976511
O  19.6513711866  14.6668945258  23.1444330778
H  19.7405240369  14.7618361670  22.2144839443
H  20.5682078822  14.6173230586  23.4295465434
O  21.7353406936  11.0182661396  27.0046275972
H  19.4783663035  21.0805234328  20.9398430203
H  20.8470104734  10.6026187171  27.0666947825
O  20.1521773616  28.0745068084  9.9636263235
H  19.7449754480  28.4518325578  9.1986502600
H  19.3801263903  27.9398470018  10.6272495496
O  22.5817921568  6.8045378681  28.1796866862
H  21.6255532603  6.7320150102  28.0992031405
H  22.8010653388  7.6131333301  27.7012523675
O  16.8605941176  11.6462356158  12.8450314605
H  16.6101186953  12.4073303558  13.3918796473
H  11.8667603713  15.2900499557  26.6315026600
O  28.9092719203  24.1868700724  10.1577598046
H  29.6434988260  24.8555735872  10.0172553148
H  28.9054998405  23.4987502086  9.4174852442
O  16.7969516426  18.8340530923  22.8144177905
H  16.0783856080  18.3397533707  22.3021236250
H  16.4792845165  19.7519409915  22.7598944443
O  22.7427822037  21.4096184788  23.7194460727
H  23.1273004775  21.2008104136  22.8270826814
H  23.2127118032  22.1829890787  24.0089164260
O  4.6856070694  16.8359671016  18.4587807191
H  5.3580242086  16.1381803006  18.6684704231
H  17.9949862986  10.1396646591  5.5400766433
O  8.9140101812  6.7496292017  34.4508696872
H  8.2066515627  6.6452719865  35.1461134827
H  9.2258296905  5.8506161252  34.1927178820
O  18.7291016680  23.0319396627  35.3721153629
H  18.6385084993  23.7848691695  34.7350688032
H  6.3781803324  18.2684802408  24.3308673334
O  19.4163963125  24.4381050690  6.9709623517
H  20.0040907303  24.5018521402  6.1715460918
H  18.7527762384  23.7418714170  6.8324438267
O  12.9398334496  7.4410128296  9.9680417628
H  16.7489107040  15.7893185557  18.9542981640
H  13.4967203892  8.0867596956  10.3821247789
O  34.0914388548  27.1014878792  23.7980833232
H  34.5031706279  27.2170984920  24.6570181490
H  33.1674260036  26.9030432654  24.0773076418
O  20.8452441844  27.8075027601  0.2450796311
H  21.6794734225  28.1116319065  0.5380823116
H  20.5514892389  27.1356485141  0.8913636662
O  8.4344872315  17.9213310050  10.9373857769
H  8.4402095512  18.1397249389  9.9624874786
H  7.7500377498  17.1888197442  10.9545911009
O  23.0711114544  13.5142221284  5.0323603010
H  23.3071512109  14.3269381849  4.5442024316
H  5.5069045735  16.2657420162  15.6541447410
O  14.5063995382  22.8529491306  32.7812231109
H  15.0618948306  23.6743692353  32.8880177969
H  14.1329640992  22.6461299282  33.6268842685
O  11.9857087859  18.5795603680  25.8186724597
H  12.1929603205  18.2388204729  24.9173504800
H  11.0301793303  18.7363484128  25.8062605274
O  23.3476039339  32.9380793617  28.9732733058
H  23.3901145432  33.8840790758  28.7459645509
H  22.7351595254  32.8091860795  29.7899175496
O  17.7548998590  19.8413669410  32.4599251021
H  18.4915599381  19.2715467655  22.1112554301
H  17.7597354017  19.0850966002  31.7939865447
O  24.3536821526  22.5680056374  14.3300812914
H  24.6060121901  22.9022827935  15.2246146420
H  24.3251492447  23.2453864257  13.6576210798
O  22.0898816050  9.1882017917  15.9741715198
H  22.4850935467  8.3068312013  15.9527329015
H  22.8728173810  9.7177820923  15.8859271457
O  24.0633173738  13.3987489891  31.8277116060
H  24.6772439534  13.9517220632  31.3684097283
H  24.4145475863  12.6904642516  32.3388823044
O  21.7433957821  29.1003059187  18.3767706503
H  22.3250950464  29.1597956774  17.5935661165
H  21.0438147890  29.7316886353  18.1641483886
O  6.3615264402  14.7610461471  18.8607207200
H  7.0984918080  15.0909568372  18.3829712350
H  6.0350565647  13.9557336091  18.3878189423
O  31.5197467711  20.6807336361  6.0342719699
H  32.1776170390  21.2659490850  5.5695251247
H  30.8922231643  20.4005601392  5.3597016639
O  6.0608454577  22.7404659355  29.1961234385
H  7.0039498645  22.6744137806  29.2992724623
H  5.6314070077  21.8745113989  29.2104938092
O  15.2997309970  29.6686724518  16.8245745902
H  15.7946589893  30.3102633350  17.3826947417
H  15.9167867148  29.1363100113  16.2792481408
O  18.6910601328  25.4512270689  25.3136613853
H  18.1846773351  25.8952951837  24.5925045467
H  18.4706604436  24.5461730164  25.0995293101
O  8.7275664069  18.4099868514  30.0379323738
H  8.0728019918  18.6909253703  29.3523239353
H  9.5281251060  18.1046350004  29.5373438299
O  31.2020272239  19.5912480473  21.1328340784
H  30.3627495567  19.3418630849  21.4183911167
H  31.1721421049  19.5224379035  20.1430609325
O  27.0401147075  11.0088537805  32.7347375402
H  26.1758498775  11.2206930635  33.0573487712
H  26.9301961156  10.9134227100  31.7860867297
O  20.9392793056  11.3044194367  22.6874420109
H  20.1897066601  11.2738093275  22.0779085845
H  20.5322746889  11.3917028170  23.5461056977
O  3.4650077710  18.5066105464  14.2337391553
H  3.0078012679  17.6974117150  13.8261319540
H  3.9821577704  18.0369373578  14.9640484313
O  25.2394223142  21.9087987548  9.3926929584
H  25.7680858380  22.7334541762  9.1924212104
H  25.9554806123  21.2600979864  9.6285234759
O  27.1711835988  14.2323667591  19.1418000175
H  26.5214073271  14.9054250547  19.2878159844
H  27.7755016603  14.7350586168  18.5970709164
O  18.4137426001  9.7407685213  23.8580994903
H  18.5720043996  8.9832655573  23.2607172616
H  17.6708402410  10.2597739489  23.5753761213
O  19.3494803922  23.4833031652  28.4653382860
H  20.2185450930  23.7810162197  28.8265436504
H  19.5100897762  23.0735320722  27.6467734496
O  7.0334042403  28.5366152167  31.9059691254
H  7.0035049229  28.0733099985  32.7569132798
H  6.1056024102  28.8673963402  31.8600652245
O  15.4579416147  11.8855280894  21.7259576673
H  14.6170034188  12.1907769388  21.4098202105
H  16.0319471997  11.9583335846  20.9290796470
O  17.8975165403  22.7205181898  24.8864976570
H  18.6361465121  22.2057865306  25.2978063412
H  17.1792606164  22.5468961038  25.5106430501
O  17.3010892126  8.5620492363  9.9603272635
H  17.5073683362  7.7469565285  10.4465963766
H  16.3634276569  8.7006168459  10.2414832349
O  20.4628103723  24.1350510065  17.1313921810
H  19.6359166844  24.3104290145  17.5359594867
H  20.3635953156  23.2063128753  16.8494071881
O  14.0790695395  20.6874408621  20.8814541327
H  13.8921284483  21.5224880459  20.3342373776
H  14.7448363058  20.1279811020  20.4587970927
O  24.8639207988  12.0736774449  28.2645592754
H  5.5137195805  30.1049713779  1.1064242145
H  18.1467274021  30.5832150437  28.0143705034
O  10.8661048233  21.9228708494  21.4656790413
H  11.0442974348  22.7682175228  21.0162749156
H  9.8953092433  21.7705345599  21.4425023700
O  19.7363064908  13.7279611335  17.6668690016
H  19.6613220045  14.1049674678  18.5465936942
H  20.6672001681  13.8493968919  17.3056798606
O  25.8008371586  11.7001466987  36.5244638234
H  14.0621164072  20.8896160037  30.4815817189
H  13.1744863565  20.5204501302  29.2864542849
H  12.2251726496  25.3166842754  23.3018607737
O  19.6567287341  12.4608541189  24.9806565270
H  19.0332470169  12.0160492365  25.5945889182
H  19.0680944836  13.1080011344  24.4820602846
O  0.0489238062  2.9274950206  32.0734041370
H  36.3816337590  2.4971116417  32.2159758843
H  1.7460668932  32.4907172395  6.9031916810
O  30.4153319751  9.9243447997  31.9776834849
H  30.0794769610  10.7035310575  32.3931720213
H  30.5725948086  9.3422950956  32.7409824858
O  19.4179067499  17.2998505433  1.0769585754
H  19.4095849122  17.2353892469  0.0896801148
H  19.9943588481  16.6008844820  1.4381079525
O  12.4817732323  17.6734862923  6.0421381485
H  13.0402505100  18.2290604608  6.6010447249
H  12.5830661400  17.9888322733  5.1419077492
O  10.6892768289  9.3089136935  17.3702823221
H  11.4084150896  8.6626455284  17.5248079260
H  11.2475446497  10.1341063580  17.2417451752
O  11.0881674375  17.3368888659  28.4269954188
H  11.8842861483  17.0890893335  28.9878969956
H  11.4661828177  17.8909335837  27.7532168442
O  14.6432516165  26.9000385146  24.4433842119
H  31.5871674896  20.1525086606  18.2816909833
H  14.6321656313  27.8392696680  24.6807248638
O  27.2610722161  16.8846957419  10.0118442330
H  26.3565086723  17.1206363237  10.0909641012
H  27.3203364775  15.9013754290  10.1402606580
O  30.1769657581  32.6771500192  36.4205360085
H  29.4274406955  32.1314606619  36.1063628536
H  30.6680854252  32.0410569083  36.9714289903
O  6.8455182047  19.6236613917  33.0257710145
H  6.6833524539  20.2020595941  33.8217044123
H  7.7023053727  19.9867509277  32.6827807708
H  29.6270786399  28.3179325747  28.4129143701
O  27.5904843410  26.3963992807  33.2357638064
H  27.0884800765  26.9113519813  33.9044877781
H  28.1672410929  25.8364670370  33.7802368835
O  11.3364144670  23.1622354591  0.2505327285
H  11.0613424709  23.2955696117  36.5333397821
H  10.7498664205  22.5458126680  0.7247346622
O  24.1693935183  20.4811204371  21.0380212759
H  23.5588780823  19.7580021600  20.7566575456
H  24.6558042548  20.7608452612  20.2439978310
O  12.4690277799  15.1970094204  25.9041200294
H  13.2541958614  15.7515170572  26.0445867133
H  19.7670273574  18.7289063925  10.5585274742
O  15.8510287933  25.3068535843  33.2287764004
H  15.3883356799  26.1319043156  33.4670873773
H  16.7942705322  25.5375334921  33.3150245226
O  0.0968334374  16.6119641045  22.2941219407
H  36.4815763016  16.3849990588  22.5742350548
H  0.1882198440  16.2139995079  21.4010861436
O  23.6643243538  25.8018978114  22.4813286633
H  23.7863510843  25.0881500995  21.8291325417
H  24.4899345926  26.3326791718  22.4314848491
O  6.7263088312  16.1324913727  27.7911528673
H  7.6346374722  15.7416458337  27.7711475311
H  2.7149489111  7.5801216031  2.0318767164
O  28.9844971640  14.1333920566  21.3783883640
H  28.6283999457  14.3098591888  20.4838490258
H  28.1533906520  13.7532513406  21.8039898950
O  18.5680222391  23.0245404563  31.6405521718
H  18.1605795784  23.4322788178  32.3923289905
H  18.8366605555  23.4107328462  36.2199105656
O  25.2066652073  25.3604264810  36.7987063924
H  24.2352909723  25.1832001948  36.7429765445
H  25.2862143625  25.8408602236  0.3766763151
O  16.9897494413  15.2926429351  19.7826528713
H  34.9198730309  14.8033140769  9.5779438025
H  16.3141929866  15.7013921194  20.4223780791
O  11.9851242076  15.5225982314  31.8861886111
H  11.7048934015  16.0145699694  32.6866555287
H  12.3926670516  16.2109936888  31.3560430905
O  13.2781913845  31.0002281279  32.0224189674
H  13.2128565599  31.9833282199  32.1120604761
H  14.2429904677  30.9130308202  31.7377383980
O  13.6127172822  22.7475514216  1.5547281864
H  14.1983689161  21.9893626704  1.6219544241
H  13.0120674959  22.5268660386  0.7856953825
O  29.8441930286  4.5414839225  29.3340595984
H  29.8273752856  4.0150017584  30.1650321125
O  9.8799869035  21.0119154731  1.6005788039
H  9.3154682975  21.0880355311  2.4091405949
H  9.3177601178  20.6345193539  0.8401528141
O  31.0265518357  20.0509428021  2.0948752548
H  30.9905252137  19.0699382935  2.2440342229
H  31.1405748337  20.3474175797  1.1400531404
O  28.2176931953  17.2083584570  12.9455892187
H  17.3193366944  7.4908816447  8.4241777241
H  28.2814554409  17.4546226610  12.0041802498
O  16.4075182375  7.2762297980  21.4991392622
H  17.2997195223  7.0287161149  21.8926397146
H  16.0246659182  7.9208360085  22.0868504447
O  20.9103151450  16.6877342761  14.3687073107
H  21.6310854750  16.2603115344  14.9110118374
H  20.5955407141  16.0859258697  13.7137494319
O  18.3854158879  27.0756101679  35.7284703682
H  19.1789244998  27.3481488674  36.1839653743
H  17.6252915778  27.1031256486  36.3751682098
O  30.6341492442  15.7949120562  35.7125506588
H  31.4959841438  16.1017661974  36.0885353488
H  30.5892790991  16.0876244984  34.7797801234
O  24.4280748635  6.7352031334  0.1319794959
H  23.5684028169  6.6299188493  0.6044353514
H  24.2008035835  6.7135466901  36.4066344606
O  36.8303535729  17.7787844590  35.0746341553
H  0.1339219800  18.4979885963  34.7562903033
H  36.2004683059  18.2751125149  35.6339334854
O  28.9149944416  20.4950311959  19.2239631883
H  27.9699774522  20.2515516286  19.3616112603
H  28.9163903442  21.4351143354  19.2478219846
O  8.0546175467  14.9394661492  35.3928689687
H  7.7409331781  14.0990807929  35.1061288898
H  7.4358258346  15.6806161510  35.0634610778
O  5.9876255032  23.7020267691  26.3923466170
H  6.4346353486  24.5815864891  26.5499854262
H  5.9118593212  23.3470360540  27.2975771505
O  17.6439561560  28.8019357350  31.2937864359
H  16.9963715531  29.1162599658  30.6510378434
H  17.2285911944  28.7856443230  32.2139070310
O  12.9436694004  31.4861096748  34.6620395852
H  13.0197813589  31.2096826870  33.7342888969
H  12.3670234733  30.8225487136  35.0899815286
O  28.5885039548  29.9661663021  19.5900676739
H  27.7228171855  30.4145429551  19.4471377411
H  28.9468834323  29.6387568071  18.7734640720
O  22.8247640932  21.2519547373  4.1638206537
H  22.1797365263  20.5010500007  4.1139455775
H  22.1807167461  22.0097834643  4.2080220365
O  22.7239705946  5.5496493805  31.8064578775
H  23.0554196854  6.3802459824  31.4050096547
H  22.8433149912  4.9093786843  31.0881048322
O  25.2663182992  17.4738384880  21.9856540275
H  24.3484067330  17.7595540877  22.3314203944
H  25.8262002548  18.2442820765  22.0859045348
O  36.4764308465  17.9594556806  28.5626380113
H  36.3072470329  17.6421077618  27.6210222443
H  37.2497950357  18.5235510708  28.5249383733
O  15.4037872766  13.7116511589  36.1463385764
H  15.9492462400  14.2458700673  35.4607885446
H  15.0126278739  13.1312779463  35.4658514762
O  24.3692401458  20.2997825196  27.3067059805
H  24.7877199312  20.9172814001  27.9308510945
H  23.3844388202  20.3577760405  27.3818042952
O  14.9954487178  33.0946903278  8.4196350350
H  15.8624112622  33.3333826163  8.7876364607
H  14.9666594056  32.1416206409  8.3143246678
O  10.6249752878  29.8769308757  28.0011561641
H  10.0680923892  29.5976467944  28.7077422532
H  10.0379467465  30.4925067498  27.4653011732
O  29.4300822361  12.7156043571  33.3754891828
H  28.5718474104  12.2443387893  33.4492436982
H  29.9265445430  12.7330209880  34.2986391566
O  16.0347919380  24.5217850324  30.3821753721
H  16.1324721710  24.8389784076  31.2658764225
H  16.0146782071  25.3036008950  29.8286350577
O  5.6257826646  12.1424354354  23.9778451363
H  4.9537121886  11.5793325904  24.4676273792
H  5.5683219625  11.8808443307  23.0846476672
O  16.6695391704  21.6674376602  22.0959073717
H  15.7517746495  21.9619165285  22.0868025128
H  17.0719573693  21.9890572436  22.9200620183
O  32.3885399574  23.0152253422  8.4418321989
H  32.5338583416  23.8576329505  7.9864315929
H  33.0701814276  22.4129131188  8.0727730930
O  8.3574779604  16.5163589295  31.9831589424
H  17.1185713647  31.8812886496  28.2022181658
H  22.6873760547  19.4193406575  7.3656095809
O  33.1285270354  8.3366520647  24.7540050441
H  34.0630785998  8.2086027770  25.0820707542
H  32.6633510230  9.0774827170  25.1338632033
O  31.6401123897  14.3717076327  32.3140101275
H  30.9575240828  13.6970166855  32.2432504740
H  31.1439821074  15.1106206773  32.6515980807
O  15.7119835070  16.7703298169  8.0023074830
H  5.7792914554  14.2229702853  31.6158722600
H  6.4404161544  12.8649512536  31.7618119145
O  20.2094915827  35.5019223104  5.8388826076
H  20.0514510078  35.4304161503  4.9035377914
H  24.8594178296  6.4829985831  16.5940293182
O  19.8585132916  31.9406678012  34.7438465510
H  19.8260004653  31.0701915705  35.1018265968
H  19.2693966915  32.0042711334  34.0059030286
H  28.2277125234  33.0167694605  9.1521842479
O  23.0437696173  8.3169790177  30.7303760986
H  22.2653518761  8.8331348938  30.8046965119
H  22.8517697089  7.7805806736  29.9040333528
O  27.2334419934  7.2251027715  5.7213705051
H  26.9704371641  8.1536900446  5.7834275169
H  8.4454946433  28.6963587408  7.6272150972
O  5.6875649701  17.1404960196  6.9846709772
H  6.0948685069  16.3640852376  6.5650924353
H  4.9043130424  16.6765580103  7.4252670269
O  17.5560984280  12.3616083657  1.0252718443
H  17.5201227099  12.6027792922  1.9706080986
H  16.7009255627  12.6939498609  0.6985014017
O  15.1315430962  1.2928115777  35.2050471070
H  27.1271878812  19.4294906719  7.6325703785
H  15.1935522299  2.1574208352  35.6889056224
O  31.8085526068  27.3429852247  31.5688527407
H  30.8861241038  27.6775942239  31.6417851418
H  31.9007824762  26.7573479967  32.3889209587
O  17.6791485168  3.0282724668  0.6888067725
H  18.0921432501  2.9411567071  37.0714034169
H  17.5761973469  2.0917157721  0.9436488672
O  26.4102418988  24.1445447988  8.6109160584
H  25.6648493234  24.7769857560  8.7107521166
H  27.2037356389  24.4725250531  9.0729868218
O  19.1077697623  14.9885574040  3.9000741716
H  18.7172143026  14.1188412782  3.8385959817
H  19.8279285729  15.0395063886  3.2290256269
O  13.5980010012  22.7738802007  19.3618702389
H  21.7085893759  10.2243259816  17.3450031471
H  12.6839938206  23.2310112514  19.3689646238
O  26.2510705040  3.1709972429  4.7495547733
H  25.8415043542  3.9429508198  5.1536429321
H  25.8600095057  3.0383778505  3.8361399779
O  23.4058346030  29.3375780011  0.2233910627
H  23.6997848428  29.6333660989  36.5833364863
H  23.6843802921  30.1227562410  0.7229829135
O  5.2129099880  32.1894739179  3.8347505429
H  5.8168856212  32.8761613882  4.3072516722
H  5.4553517368  31.3546843634  4.3325794729
O  1.8980687296  21.0191805988  4.6911677670
H  1.9548374301  21.4812293318  5.5849950284
H  9.1181649147  17.3240296368  3.3435305089
O  22.7437987604  20.3271618191  12.0773051458
H  23.6706960411  19.9991186048  11.9756539177
H  22.5718443373  20.5088403935  13.0331696959
O  14.5357600731  30.2021975965  5.2535166664
H  14.7543316207  29.4674867894  4.6457446799
H  13.6309144313  30.4652269382  5.0104882358
O  25.6809514522  26.7168516012  6.7144015242
H  26.3021066276  25.9685971269  6.6578696281
H  24.9915919025  26.4181112180  7.2651729552
O  0.9255100132  18.4496928817  4.0335339068
H  1.2938318566  18.3869030200  4.9680034259
H  29.8123753761  29.0966941574  5.8799768420
O  25.8653707105  2.3500633048  11.5164016963
H  26.4762428809  2.6209289080  12.1893657439
H  25.1243865328  2.8997755177  11.6620263822
O  24.3329161993  29.6812513479  34.8668261946
H  24.4811530331  30.6126411288  34.6237107742
H  28.9894181476  29.4603697980  35.9155485823
O  17.7843646235  28.3419012056  15.8860482138
H  17.8050542782  27.3704144976  15.7106448746
H  18.5726584730  28.8345179275  15.4606732862
O  12.6335001800  5.7929754919  0.0945241982
H  7.3439656849  33.8467395632  13.7436172259
H  12.7826785859  5.4592791232  36.4668785459
O  27.7227577477  25.1595160167  1.0804212304
H  27.9145964696  25.7674108321  1.8083941827
H  28.1117404406  25.6136389700  0.2987295974
O  17.3358222241  33.8457918828  36.4415120165
H  16.6928975538  33.3457295091  35.9491974892
H  17.0220660950  34.7289972649  36.3712141007
O  28.8802448122  1.3208248344  9.8343371946
H  28.5991613119  1.0073390957  8.9720837017
H  28.3502482518  0.7829273367  10.4886024018
O  1.7567270014  22.3548737692  7.0847944136
H  2.4063890769  22.5157835386  7.7726687499
H  3.0093076791  36.1376867667  5.3809246935
O  12.8934880656  4.9726494703  34.6998013009
H  12.2384218842  4.8819434149  33.9578799403
H  13.7787176763  4.8267050581  34.3277852917
O  13.0021517821  35.5499847121  10.2792071691
H  12.6128489786  34.8477460837  10.9697365805
H  13.9426821179  35.4103567581  10.3876931227
O  19.2203858959  29.1151286739  21.2972651115
H  18.7385882493  29.9261443639  21.2019817427
H  20.0485786841  29.4340645916  21.6982933165
O  14.5562839758  0.8137049829  12.2981794527
H  22.4028918511  22.0443806778  11.0170928498
H  14.5956907195  37.1330530124  12.2543182748
O  21.2787243282  18.8596183706  10.1496975918
H  21.8439061503  19.4250691250  10.7171100385
H  21.4757593847  19.0467267876  9.1468263533
O  11.7963247719  0.1735410937  15.9069614697
H  11.0627762618  36.8644532612  16.1748739093
H  12.6125101972  36.9049800862  15.9532584083
O  14.2871667752  37.1156817573  4.5419483415
H  15.1148481681  36.6348882604  4.6485077662
H  13.5599311619  36.4913537942  4.3593375477
O  22.2511019127  25.2361708999  36.4535434766
H  22.3270056540  24.4967297317  37.0454112893
H  21.6829609854  25.8766512260  36.8936760003
O  26.0349160805  4.7679629599  1.2672241223
H  26.9905797195  4.9288746011  1.1606321295
H  25.5520674884  5.5379320156  0.8413896780
O  1.9399422680  8.7279143082  0.2412937008
H  1.1937557819  9.4356920423  0.2718146111
H  2.7209108799  9.2833130852  0.0821833799
O  15.6512131454  5.0897758372  2.2970840696
H  15.3744422409  5.4463304476  3.1819823843
H  15.3453256427  5.8411068850  1.6604043417
O  27.7843627932  33.7125479352  2.8749729886
H  26.9353817970  34.1853567953  2.8085714019
H  28.4372518677  34.3632216965  2.6573129461
O  21.7342122061  27.8810163096  30.8933886402
H  21.1759594606  28.7440148863  30.8425934237
H  21.0427196824  27.1871274915  30.9335617957
O  23.2713333141  1.5553382679  7.4743015654
H  24.1164782002  1.2996501545  7.0031307030
H  23.2080140607  0.8767831623  8.1672728217
O  28.6017259082  33.6295350702  13.8003981260
H  28.5097463106  33.9906577638  14.7330776763
H  27.7565246390  33.1447658861  13.7836593978
O  5.5735146931  35.0717416471  7.4938553819
H  4.9786966958  34.3212441903  7.7655087961
H  5.0286663826  35.7388959607  6.9924530405
O  34.7426429900  35.6010690572  3.6943204769
H  35.3452724085  34.9693534830  4.0989606813
H  33.8453454896  35.2349227642  3.9076502719
O  13.2651904057  27.0848844571  20.8906108809
H  13.7630123232  26.3177262419  20.6546344696
H  12.5346408528  26.7899291838  21.4567724538
O  12.5173846856  18.5637889432  3.5898107355
H  11.5901684418  18.3107622479  3.2729288876
H  13.1361744317  18.4106343561  2.7814303692
O  19.6042201346  35.7051275326  36.9804772283
H  20.2894852251  36.3771716417  37.1758913643
H  18.9878999753  36.1143168953  0.3934109346
O  8.8702391857  25.6962792041  2.7345570810
H  7.9764138683  25.7003088217  3.1471379438
H  9.5157918461  25.1089886730  3.2470868910
O  10.7897669609  30.4899688743  12.8027021553
H  9.9927437457  29.9575904579  12.7984438115
H  10.4703348500  31.1810242842  12.1407294094
O  25.4380279484  31.6789346691  4.9313508793
H  25.9435323021  30.7571435308  4.8978653460
H  25.2817948509  31.8927410343  4.0165935251
O  8.7651842859  24.6789549057  7.0904184083
H  8.6182320674  23.9668011413  7.7612793460
H  9.3868108794  25.2828834479  7.5338881434
O  16.7462112008  20.3211394185  3.9509706414
H  16.5145575848  19.5990170129  4.6195625272
H  15.9170805336  20.3807441910  3.4064655958
O  22.5326084533  32.3024094826  1.0687828599
H  22.1744010357  31.4779661422  1.4544360537
H  22.4988290548  32.9221994325  1.8795994999
O  26.8554138385  36.4238795225  4.7690331015
H  19.4725826414  33.8208266351  6.6128752186
O  17.7814404548  23.5800983642  12.6644558866
H  17.1262304911  23.2457643311  13.3294043314
H  18.2352083902  22.8145536079  12.2645510189
O  22.9621847175  32.4280549094  6.2494544522
H  23.7036651668  31.8419303314  6.0283435112
H  22.2784387302  31.8307750267  6.6056078579
O  25.9358650682  36.0185370700  19.9342994228
H  22.9224355054  27.6752317084  32.2674338249
H  23.7911915394  26.6145922905  32.9399670184
O  6.1131950389  32.4934720362  25.8220903469
H  6.8683891927  33.0341923597  25.6378720553
H  19.9178712163  36.4367456041  6.0190270239
O  22.1898972125  32.5488884139  12.9578351222
H  21.7380326282  32.2767014238  12.1260533082
H  23.1592230969  32.3706125186  12.7396186600
O  7.9088372589  16.8580934445  17.6931163678
H  7.8120017922  17.4786288058  18.3843254317
H  13.5883361749  6.4085186606  16.7329015541
O  30.7785604872  1.6391594772  17.7275653402
H  30.5454096538  0.7580019467  17.8138777140
H  31.6187441112  1.5987569124  18.1414958146
O  31.5977469346  3.5005773613  20.8739820314
H  30.8344820727  2.9775768866  21.2673124427
H  32.1491816260  2.7847476725  20.4854751235
O  21.4940762758  29.4153912686  22.6431639665
H  21.5550022765  28.4702473283  22.8672380660
H  20.5450216462  34.9255883766  22.6236869189
O  13.0493252185  26.2957400579  11.4278887947
H  13.5469766846  25.5793059373  11.8862392079
H  13.5543817181  26.2650472297  10.5924842349
O  34.2028344088  11.2300766104  14.9859110989
H  34.9006741408  11.1763366217  15.6807688989
H  33.9235321666  10.3076816513  14.9099261965
O  9.0482023339  20.6177237125  31.6504507111
H  9.0265148253  19.9990683553  30.8905019973
H  8.8927872976  21.4727297026  31.1276130662
O  12.1060469843  26.2283910837  17.5892395413
H  22.8463202945  3.3607620876  12.5189859904
H  12.0750694366  25.5651090127  18.2845630935
O  25.3483061488  31.4029039566  25.9494475763
H  25.5368563602  31.3673354764  25.0131564262
H  26.0695272792  31.8797146615  26.3874797741
O  13.3795719823  1.3873124868  24.9515764823
H  14.2614794239  1.4099638340  24.5191224330
H  13.0517542058  0.4955776565  24.7289609483
O  22.9037766952  3.6263635800  23.4798977361
H  21.9720800828  3.9220135752  23.7246051432
H  23.1801804236  2.8730376110  24.0285446146
O  14.6389779474  16.9345132150  25.3615770904
H  15.2278972279  17.3846244718  26.0127263803
H  15.3332589930  16.4718215203  24.8487298814
O  19.7537381022  21.8230891819  20.3133773773
H  19.1356435952  22.5490848533  20.3060177748
O  13.7944297610  20.5241237965  4.9686796174
H  13.2225824575  20.1780074147  4.2491480882
H  13.8289213540  21.4916154059  4.7776568094
O  29.4561017676  32.8131341891  17.4889103864
H  30.0387895159  32.4234375578  16.8369854202
H  29.6570354264  33.7593186318  17.3520167117
O  21.0788690961  31.5648601827  10.5582121627
H  20.1138914980  31.4083836224  10.6065369825
H  21.3034310996  30.8660188863  9.9213353541
O  8.8438129106  16.7262995105  4.0638252901
H  7.8898380338  16.5745291090  3.8854708049
O  14.6100825410  4.2037741430  23.2352571362
H  14.8269667372  5.0268232808  22.7946915845
H  15.2964962995  4.3108609228  23.9233771896
O  19.1573007565  2.4720117790  14.4277899441
H  18.6173485506  3.1977862136  14.8198573503
H  19.7346935303  2.2175120450  15.1783874188
O  16.6124511578  16.5621514402  17.4940197796
H  16.9324712446  16.1335082983  16.6707937258
H  17.1330983717  17.3660967631  17.4747558958
O  26.6494703175  14.0788840842  26.9601444196
H  27.4508783265  13.5253649253  26.7106586247
H  34.0149456836  17.1330710222  17.6992054919
O  28.3593130808  34.2579099182  23.0169937043
H  27.6029181273  33.9177625191  23.5166874682
H  23.8871331397  29.3233857735  34.1109283477
O  23.1434222818  2.0784517385  18.1438094063
H  22.4204008344  1.6162210717  17.6803593227
H  23.5242326210  1.4825111153  18.8262161090
O  8.2915696813  33.4883910682  13.6046334307
H  20.1523161959  0.3055936084  19.3922370788
H  8.3371256059  33.4740665756  12.6809094821
O  21.2178213445  35.1872866905  11.8817374032
H  21.6192966831  34.4003863869  12.2581589202
H  21.3867212067  35.8833193242  12.4880168793
O  14.9437156041  31.9917290823  15.3257611084
H  14.0065752859  31.8140913442  15.2465799919
H  15.1605265062  31.0831017998  15.7287604758
O  22.1466536056  33.3547023057  25.3834037154
H  21.6405252634  33.5348372262  24.5963127337
H  22.2778627266  32.3866810713  25.4604926664
O  25.8250859273  4.7372075042  19.1386920043
H  25.5566180371  3.8630102716  18.7109373803
H  20.0368943683  32.2707464965  24.2702862593
O  18.0633372845  29.1980314013  8.1846884210
H  17.0953469092  29.4313733128  7.9888947361
H  18.5427150158  29.6526150264  7.4897058930
O  23.6426460966  28.0160798229  16.2079078776
H  24.5192277008  28.1910335515  15.8821913494
H  23.5775465227  27.0075821198  16.3817807682
O  17.0801391738  2.0742307009  3.5766136958
H  17.2802788475  2.0303020857  4.5555700918
H  17.3822570042  1.1298893175  3.2510846358
O  6.2492755324  33.8657369735  31.4827826452
H  17.4188546047  19.4539061212  33.3559539325
H  6.5442204244  32.9679653965  31.3573875186
O  27.8552903068  26.7298815887  17.0815019137
H  27.1151579876  27.1088030232  16.5581637132
H  28.4467905349  27.4649497305  16.9504309315
O  32.0291821807  15.6007227348  6.0799439852
H  32.6168639217  15.9119906379  5.3430431818
H  31.5422215537  14.7849454557  5.7504683596
O  16.6204203932  4.3398486138  25.2498507226
H  16.5648994074  3.9320234869  26.1176320955
H  17.5787571506  4.4284508073  24.9663161864
O  28.2722809276  11.9715033678  13.3676916116
H  27.8808472065  11.5464805147  12.5956345477
H  27.6953930114  11.7015797420  14.1643386793
O  8.8604146011  30.0667331374  34.2475875988
H  8.1946221159  29.6825741323  34.8158695596
H  9.3221261535  30.7014998680  34.8346076391
O  24.7410054754  14.1289075590  9.7415023942
H  24.3210981978  13.2440772266  9.6673370051
H  24.3852529377  14.4156706442  10.6071325839
O  26.1677869475  36.7694988784  13.6696449419
H  25.2248623587  36.3684964051  13.6573703493
H  26.0451500094  0.3946714727  14.0224666793
O  24.4522362202  23.5482510358  24.4670731592
H  25.3495814778  23.6564260108  24.8244119359
H  24.4015328131  24.2417365107  23.8220021906
O  26.9689054399  32.7208707422  16.5818755200
H  26.4249981100  32.2385974763  17.2492773520
H  27.9135128886  32.5934980892  16.9184731080
O  20.9569449589  30.9137555933  25.1408391162
H  21.1407818787  30.3582759281  24.3336295818
H  21.5667460029  30.5856454112  25.7979044102
O  24.0170700588  34.9531904895  9.8809020493
H  24.4625226937  35.7366518767  10.2018089762
H  24.3345188939  34.2412157215  10.4398983054
O  26.3158074911  30.4306795707  7.8412783658
H  26.3276199035  29.7190906271  8.4919550579
H  26.5181515074  30.0353049472  6.9609288852
O  18.0176302168  0.7395071791  22.0748253859
H  17.5208356539  0.4720536761  22.8562177465
H  18.3979370952  37.2012993027  21.7256133638
O  19.3169544336  36.0288135111  8.8539432685
H  19.4640220396  36.3592004847  8.0132549855
H  18.7421483705  36.6440299038  9.3830419208
O  7.1113094560  36.9164467681  8.9168985100
H  6.5595119399  36.2569701902  8.3883112758
H  6.8822891875  0.4508879174  8.4824498724
O  22.7911717659  35.5059229411  28.0081070425
H  21.9065558675  35.9570602272  27.8753764806
H  23.2330744586  35.8965207579  28.7689525003
O  29.7278758562  1.1944852768  14.7621770193
H  29.3672977475  1.4423272516  15.6007477469
H  29.0773577189  1.6159783898  14.1968678758
O  7.8318206294  30.5975856959  28.3647335034
H  7.4503593048  29.7041021075  28.3754166040
H  7.4695695657  31.0343607446  29.1730305521
O  22.6985010280  15.1976382183  24.1326313218
H  22.3811218179  16.1496178572  24.0070004697
H  22.2704700793  14.9792462868  24.9914260302
O  16.1620826958  32.8047369867  19.8718955996
H  15.5242240293  32.1210482877  20.2356131743
H  16.7047859148  33.1691310377  20.6160734275
O  11.6452275436  20.4513813470  18.6431191439
H  11.9053951686  20.7446572298  19.5585013899
H  12.1511248169  20.9798319631  18.0316602491
O  16.0987247554  13.1386241525  10.2203167979
H  17.0297021238  13.0700138669  10.0869506390
H  15.7728004606  12.7396807347  9.4040648954
O  12.1566240077  3.1394081086  17.4429119224
H  12.5358438334  2.2358572688  17.6568943703
H  12.3250400584  3.6285382919  18.2496449961
O  7.7327478048  30.1282568118  25.3781210449
H  3.4689469941  35.5418882957  31.8573696672
O  19.5752974250  29.9669580206  27.7306067580
H  19.9600294581  30.8110094722  27.3665880388
H  19.3356516801  29.4036514832  26.9737301793
O  20.6199986741  18.5815096492  32.1149502091
H  21.3312862000  18.1066182380  31.7164523508
H  20.7853808835  18.4862899366  33.0868032734
O  18.6614377175  26.8082385991  28.4935191055
H  6.0891584959  25.5870578476  5.5573365962
H  7.2200332812  25.6872898031  6.6422739833
O  25.7064364838  6.8964179987  16.7431153790
H  25.8796949005  7.6141780349  16.1299063970
H  6.5271212805  31.6842936929  26.0974682714
O  13.3564066529  13.2100475689  32.7513098899
H  12.9758031360  14.0753596256  32.6143212043
H  14.1602476088  13.1877784007  32.1697679736
O  2.3166265111  33.2360328508  7.2429828833
H  3.2057177603  32.8370773280  7.2755131206
H  24.3261854876  34.2613833141  22.1943734764
O  15.7137102703  29.0793931179  27.3527180217
H  15.6560666116  28.4148678239  28.1374278988
H  16.1858024934  29.8406805132  27.8042338814
O  20.6151978528  6.4304957606  20.5076962869
H  20.1702786606  5.5076324740  20.4965081780
H  20.3341110960  6.9943257140  19.6841937461
O  18.4834306897  2.5572596233  29.1342821779
H  18.9213748369  1.6802096912  29.2246781006
H  16.7348445227  36.8374837658  36.9073673406
O  25.3880490377  22.4752741926  5.9893489465
H  25.6311476095  23.3873513481  5.8996735034
H  26.2231256940  21.9541456437  6.0729691966
O  19.5577451204  37.2078120541  30.0019178329
H  19.3179162857  36.3277674546  30.3679561414
H  20.1221385334  0.3561307337  30.6714393785
O  30.0072593941  31.5182201838  25.3251787963
H  29.6635497596  30.8646440932  24.7184784576
H  30.8040457342  31.1007613261  25.7828305889
O  12.2173202368  36.8599700771  7.1423904207
H  21.4449477039  4.7760987680  2.3750082441
H  12.7780328318  37.1268273570  6.4241752746
O  13.0702204133  25.0170760567  35.7839770709
H  13.3151656175  25.2183642615  36.7013918662
H  13.3658640491  25.8177482406  35.2722993909
O  10.3808800579  5.0691893553  12.9202664548
H  10.3445992121  6.0175729266  12.9110694467
H  10.0144460634  4.7696119814  12.0320847115
O  13.1852705897  37.1246621369  37.2411489353
H  13.6468954632  0.6715034602  37.0337478285
H  12.2678484684  0.0716086694  36.7679489801
O  9.4260191572  23.8357040200  24.2488822700
H  9.7675956045  24.2738528583  25.0239112340
H  9.4284323163  24.4959055655  23.6271659965
O  29.8295454622  27.5399031664  28.9746330271
H  29.3874626603  26.8123217450  28.5390427428
O  31.9217029584  29.2069763629  36.7786320988
H  31.6763984996  30.0421449442  37.2158991942
H  32.7492190087  29.4250676439  36.3289190518
O  17.3798948324  26.8531545078  23.5557249703
H  17.1109644794  26.9840673725  22.5839168258
H  17.4543258942  27.8423483525  23.7701511687
O  17.5627809400  24.8426363412  9.9539640820
H  17.5417994671  24.5325884935  10.8457852954
H  16.6579756731  24.9280091131  9.7464080441
H  2.3610959269  20.1861878058  4.7805214826
O  17.7103276429  10.5657538023  26.9917856019
H  16.9335764549  10.1352015534  26.6703250731
H  17.6223654193  10.6504809190  27.9810507269
O  27.0099619891  10.5701950694  20.5152008700
H  27.0619529696  11.3852149130  21.0671233615
H  27.6032008848  9.9497859232  21.0174112968
O  5.6801352943  1.7960124077  3.6714319749
H  6.3102058094  1.3897443917  3.1042322235
H  5.2728134540  1.0127356787  4.0144996864
O  15.7882013626  21.3226929629  30.9678727674
H  16.4177327260  20.7058457574  31.3754420031
H  22.0667315097  22.9209810013  34.1696729385
O  21.3776022568  3.3417756693  6.1229653683
H  20.7936306625  2.6074213865  5.8627322499
H  21.8105233906  3.0060673543  6.9319974923
O  28.6890527186  30.3456159406  35.9393537572
H  28.6018296343  30.5623621304  34.9860409323
H  28.7022475713  34.9264303642  23.5685741014
O  27.9652759925  4.4259450113  35.0613199633
H  28.6270023546  4.9770740170  35.5826196213
H  27.0506753097  4.7561206916  35.0866874751
O  19.5351754870  1.0715633455  19.5037070190
H  13.3983266340  6.3935503088  0.3925395204
H  19.6658195013  1.4615919919  18.6093875301
O  21.4739400170  20.1043962046  27.6351344131
H  21.0767927443  19.2182964478  27.3715318753
H  21.5109297949  20.1192099586  28.5966886859
O  30.1633737676  35.3312601768  25.8052215867
H  29.7668775204  36.0901523808  25.3065107696
H  31.0804630237  35.6863831512  25.8854519315
O  15.1555409337  25.3543431892  19.6310516255
H  14.9898689224  25.7134201278  18.7672929551
H  15.4232251360  24.4332454702  19.3632560748
O  20.6225863775  18.8694800392  34.7918165892
H  19.9273184457  18.2694528831  35.0490252000
H  13.8920264096  23.0937680717  21.7917390282
O  23.8084929068  35.2991495405  13.6884454228
H  23.8813036688  35.5362597226  14.6868803974
H  24.2136458770  34.3877683466  13.6699397997
O  14.2481876485  34.2658206817  35.0397025518
H  13.6522214349  33.5353104914  34.8073312901
H  13.8009781312  35.0170167318  34.6214007507
O  19.3435694495  34.8781192526  31.4099839369
H  20.0173088475  34.2242813618  31.0622114306
H  19.6877997678  35.1688767737  32.2860845635
O  13.0515471626  29.4611160200  8.9911504468
H  27.2648661137  17.1486238508  13.0152212805
H  13.1827604453  29.4158602733  9.9449432333
O  9.8957310123  26.4593356560  25.1507645043
H  10.5171389309  26.9792612445  25.7821074098
H  10.1427435440  27.1085720763  24.4392518310
O  20.9360304446  24.0513121001  30.8254819643
H  21.4891953443  24.5512364969  31.4539266764
H  21.3085888572  23.1349324444  30.5939769612
O  16.6963012384  36.1632462824  5.4713646192
H  16.8205516403  35.2819315346  5.8429705401
H  17.5595223417  36.5931195112  5.6075549385
O  11.7652923527  27.8329520978  26.6601489956
H  11.4346189235  28.6233149077  27.2001695117
H  12.4817741421  28.1960783219  26.0980415479
O  24.4399682808  35.3739652828  35.3092509779
H  25.1745549649  34.8725762564  34.9104535856
H  24.4653945549  36.2652053059  34.8706932836
O  3.6770438124  29.7062812422  24.3724234768
H  3.1804210780  30.1572455432  23.6965361827
H  3.1404600008  28.9759784797  24.6155306115
O  33.2965466535  30.5596248706  23.5617118793
H  33.1687306628  30.0909450225  24.4125138527
H  34.1907489265  30.5623804958  23.2963697084
O  16.3120850272  3.2508124408  27.7544909473
H  17.1015543880  2.8014629849  28.1582892015
H  16.4349744098  4.1792094010  28.1041901195
O  6.9518223742  26.9024354193  34.2497263069
H  7.2692535079  26.0360101638  34.0025331703
H  7.3049570473  27.1194648806  35.1090957711
O  29.8766771248  23.0659334268  29.4534894194
H  30.3985277895  22.4840864558  28.8856344557
H  30.4043262033  23.8776252720  29.6463342552
O  15.1835770839  26.5235149389  5.4027874223
H  15.9410025735  26.3820818590  6.0378192311
H  14.3535451362  26.6674915315  5.8849188539
O  32.3907607671  36.1773856220  29.8954919423
H  31.7399719164  36.7775954124  29.4703920016
H  32.1478505838  36.1014107827  30.8508667657
O  18.4752806912  18.1106254986  25.4101081151
H  17.6515990525  18.5128801218  25.8663962177
H  18.0897287359  17.4981056792  24.7300262726
O  18.5702680373  20.4332808958  29.6682199015
H  17.8198427629  19.8215142557  29.6081795103
H  19.3018965256  19.9936760984  29.2244993351
O  19.3231852975  26.5525037945  31.0666810810
H  19.0377592110  26.4825677179  30.1637688543
H  18.9518937733  27.4747616465  31.2543320934
O  23.2862276647  35.9311590962  31.9158500348
H  23.9180218660  35.4598458481  31.3729863010
H  22.6701301809  35.1947784073  32.2322292601
O  26.2197574182  21.8498504562  28.9010269577
H  27.0937733965  21.8912029865  28.4370076063
H  26.4637630016  21.2276796474  29.5942675177
O  10.7233629840  31.6111136689  30.8967812736
H  10.5137523770  32.2985578875  30.2531464708
H  11.2744695542  32.0429826782  31.6113288682
O  14.5427691661  32.4806387824  0.2513455949
H  14.0416599793  31.9344345933  0.9556774460
H  14.3144271413  32.1067204094  36.6218677593
O  18.4085408164  28.9184389694  25.3266829553
H  17.5899133158  28.6989951396  25.7310161364
H  18.1762772179  29.8348153832  25.0501886406
O  25.9710525496  32.1285499100  29.4676662019
H  26.4298326891  32.2303061667  28.6070460626
H  25.0392917430  32.2098533855  29.2764310225
O  5.3748309048  24.9807435778  30.8622526889
H  5.9905194274  25.6474426085  30.5028074769
H  5.5768530463  24.1466105318  30.3390357128
O  25.5989341643  27.5520507442  21.5731402401
H  25.2911002735  28.4819609953  21.5354952237
H  26.5405424891  27.4799739696  21.5442460289
O  20.6529354413  3.5019430214  3.4177174517
H  4.7105336753  34.6136859840  32.2744208846
H  19.7015406174  32.2767147219  7.0623119654
O  18.5100511690  27.7900203323  18.5092965980
H  18.8672149843  28.5191327948  19.1105395881
H  18.2380218406  28.2060654270  17.6920773440
O  18.5760909247  31.5909614222  4.8391790521
H  19.2751483298  31.1926553883  5.3675256529
H  19.1017815255  31.9633425109  4.1461439237
O  33.5521657382  12.2478756494  25.1978757059
H  29.9752886483  10.1521546051  0.0872767711
H  30.7625694744  11.0314416161  0.9994736456
O  1.7321691789  3.7643363967  17.7611973682
H  1.2555821761  4.2512815761  17.1002444584
H  6.6597226696  0.6085030950  34.4436083623
O  27.6913551473  11.7506198027  1.1080734033
H  27.8728384191  12.4488335011  1.7288087359
H  28.6310355522  11.4828923142  0.7671805126
O  26.4715309140  29.0436756740  5.5220188376
H  27.3396630432  28.7065443470  5.3961211598
H  35.3434643576  16.9248187887  10.1440021885
O  32.5317295576  18.9854725338  8.3151499086
H  32.4662247296  19.7448646064  7.6814553222
H  33.0203509674  19.4616509876  9.0864853372
O  32.5113771742  3.7040759500  15.1464862516
H  32.5320410961  4.0233130248  14.1957408812
H  32.3344218173  4.5182956855  15.6397573787
O  32.5568830884  0.3102721993  12.6945252963
H  32.1291490475  0.6740083419  11.9188958240
H  31.0397683581  8.3375408031  34.8822338954
O  19.3336447276  4.3957766007  10.4212578015
H  19.8817014352  5.0386398656  9.9857955751
H  18.6475612195  4.9604691183  10.8686728338
O  26.2633224478  3.0321547634  8.9820664329
H  26.5480076046  2.6966734169  9.8509508564
H  26.2581245088  2.2084941176  8.4539491657
O  27.5431362428  15.1349643334  3.7820501409
H  26.8798200744  15.3633890242  3.1128184274
H  28.0302066471  16.0016506423  3.9925029268
O  23.8251184954  10.3682651733  0.8047109895
H  2.9281177576  16.4899177234  37.1239101588
H  23.4760967935  11.0844914825  1.4132557369
O  0.2380958373  28.3576762104  31.2182512279
H  0.4311952186  28.8599785799  32.0500051296
H  1.0967702900  28.0230650199  30.9588719556
O  7.1023064538  9.9171893127  25.5817958120
H  7.8194855341  10.5784482608  25.6085258616
H  6.2844074820  10.4148989518  25.5325782744
O  25.4845573923  17.1032187861  12.7977289231
H  25.3851133545  16.9696949280  13.7519489916
H  24.8736638264  16.4487739925  12.4449702075
O  34.8629985831  9.1944349484  8.6031346316
H  35.6290570852  8.5171125337  8.5467048466
H  35.2829213494  10.0115837153  8.2701600518
O  22.6667381444  2.9819441133  0.2971941067
H  36.7178664638  9.8973881382  3.6927876791
H  23.2489958909  3.1009472242  36.7852546162
O  25.3062052011  9.4013776480  18.5919353309
H  25.6503615861  10.3276573599  18.6310512094
H  24.8951114655  9.2068316134  17.7553645573
O  31.9902989024  2.7420969742  0.3505070184
H  31.8910331907  3.1256572896  36.7477118682
H  32.3406382142  3.4357171992  0.9259120288
O  29.9300562612  8.8319982692  18.0960782937
H  30.8457034731  8.8452563051  18.2977958597
H  29.9373516632  8.9732285302  17.1431811233
O  23.8009246734  36.6049568991  4.9182836726
H  23.6289160969  35.6492732360  4.7671708452
H  25.8432248398  6.9821110271  9.6315008568
O  29.1599920135  30.3977853457  14.0783839673
H  28.2946993429  30.7572861538  14.3473043184
H  29.2389853385  30.8951429084  13.1866228411
O  2.4137035225  4.9193228332  13.6859452383
H  1.9025974686  4.8088703306  12.8683063405
H  2.7781381108  4.0401494348  13.8608060217
O  32.9381125252  25.4318863913  35.8067235842
H  33.4886009333  24.6179384597  35.9234970143
H  32.4669359899  25.2329304365  34.9553459924
O  16.7331875668  33.4535389946  6.1102935978
H  16.0183592168  33.1995618310  6.6599445766
H  6.5822105885  2.3384995694  36.1613843947
O  32.6996191300  4.8579450808  7.8351549229
H  31.7332050025  4.8389790554  7.5472219214
H  32.9513646411  5.6842875850  7.3569339787
O  34.8812836421  15.5256693334  22.8893798897
H  34.3194541351  15.9783557899  23.5494184308
H  25.1813567855  3.1853750058  1.6667152496
O  30.7914563738  30.7488158923  5.4127615405
H  31.2020759056  31.6420808908  5.5624106289
H  31.5446607694  30.1659765018  5.1478950556
O  25.0584937026  4.8739066222  6.9907453609
H  31.6794884521  5.0948666336  19.4015449134
H  24.6793697182  4.0278695237  7.3806145208
O  17.8698948022  9.6328051075  1.3688043052
H  17.8207965787  10.5541156059  1.0183091589
H  17.5715690618  8.9875689027  0.6791190225
O  33.5874698535  5.5846917628  36.8608676690
H  33.4635891832  5.0119593090  36.0502068791
H  33.6915796318  6.4653518918  36.5063291967
O  36.7481656625  7.8821475363  6.9429783392
H  0.1566195510  7.2226757587  6.9962938415
H  36.1880108172  7.5261390100  6.2327464460
O  34.9361431800  35.0804094563  30.0110702733
H  35.3073835349  35.1196450750  30.9627737249
H  29.3101051588  30.4699166504  22.5720797360
O  3.3608582360  5.4539425212  22.6598582206
H  4.1706550555  5.6614236403  23.1803942081
H  2.5967150250  5.4255498126  23.2342084316
O  28.1371938055  17.8158872353  19.2809727037
H  28.5864007523  17.5979501126  18.4810782549
H  27.4015268919  17.2181238694  19.4502172785
O  33.4099483831  20.3814136874  10.3091732421
H  34.0139928976  21.1285353982  10.3974029291
H  32.7876678591  20.4605510020  11.0567466272
O  27.8055394332  6.3417516288  25.4720006140
H  10.6945025613  1.5366229956  11.2468796983
H  28.5850900695  6.3070406842  24.8838156095
O  32.9345538063  0.3519177658  33.4507659409
H  32.4342274148  1.1556491744  33.6625916670
H  32.2218738148  36.9439008000  33.1590529143
O  31.3974293661  35.7145848204  9.1501096444
H  31.3912873460  34.9694708747  9.8291381516
H  30.7003995530  35.3912024677  8.5144500374
O  28.6258551567  8.5635046954  8.3137453187
H  28.4384514357  8.4697621331  9.2444328917
H  28.5342537273  7.7003020617  7.8884790513
O  26.3501430805  19.3044721165  1.8391179639
H  25.7616714037  19.6760838048  1.1566434232
H  27.1752938117  19.3065120413  1.3023040676
O  11.3262425953  7.7898514682  34.9937850672
H  10.4427864792  7.7209434707  34.5884071197
H  11.6170473472  6.9173322271  34.8807821744
O  30.1861124250  5.9474215890  36.4894631599
H  30.0027709285  6.8443024693  36.8035642644
H  31.0127754306  5.9899990405  35.9827088258
O  31.7440775955  4.9665556461  10.4412076136
H  32.1586881332  5.7337527338  10.9471197916
H  32.2222751683  4.9834122233  9.5698833362
O  22.4810251375  12.3682752419  2.2770920057
H  23.1631766454  13.0132682624  2.5382640982
H  22.1708828427  12.7654021905  1.4166482015
O  33.2468611773  17.7860634682  13.9180255739
H  32.6684851694  18.5739301191  13.7516681725
H  32.8638540669  17.2749964706  14.5643809296
O  28.0367611409  8.8829824286  33.9218276379
H  27.5074267826  9.4950713617  33.3669369812
H  27.3880931969  8.4526255365  34.6328409548
O  29.7960922786  34.6906665008  7.2401597376
H  29.1230228953  35.3505679099  6.9861045569
H  29.2621724006  33.8400250575  7.2013110820
O  30.6872823373  12.8390011017  12.1913333183
H  29.8460715924  12.9805038226  12.5863695935
H  30.5893375475  13.2354665565  11.3153204501
O  22.3768865582  1.3226537838  3.2637252740
H  22.1196584835  0.8108303016  2.4297190463
H  22.8411168916  0.6808890998  3.8821078352
O  2.9159200110  2.3576082757  13.9534519364
H  3.1030159892  1.9858774246  13.0648133847
H  3.7556839659  2.4372412912  14.4313283126
O  26.8356554551  25.9470226693  30.1713295662
H  26.4182586326  26.8045631245  30.4533043251
H  27.1188993638  25.4821720693  30.9443351881
O  28.8422261944  3.9503520674  4.2429444422
H  29.0498543928  3.9957816804  3.2991260233
H  27.9298099752  3.6838110870  4.3694550408
O  29.7150718251  19.5545911764  8.9797221108
H  30.6311881973  19.2259207260  8.9240691332
H  29.8730081442  20.5039517626  8.9261075956
O  32.6554865178  11.9160400050  17.6835855952
H  33.6056875750  12.0253016185  17.6665268798
H  32.3625244530  11.9583908961  16.7979147998
O  26.9789673826  6.2844050745  11.0097370126
H  26.4708486291  5.9897169178  11.8053226122
H  27.7105857264  5.6317339345  11.0362904894
O  32.2246430853  6.3770390312  34.1077269861
H  31.2642269592  6.4890633180  33.7831627590
H  32.4041438785  5.4410244570  34.0570388796
O  1.4128316890  7.9743321562  34.3243384536
H  0.5738119354  8.4337207852  34.2009288941
H  1.5686041786  8.0814092728  35.2673478896
O  12.9364797101  23.4035324134  30.2136915760
H  12.8807585726  22.4702206755  30.0938422472
H  13.8519034582  23.5595749694  30.1590558953
O  27.1213138643  11.2585661045  10.9188123998
H  36.9026899134  8.9664535048  32.3773953431
H  20.0138705320  18.0703356234  14.1531521570
O  36.1111797068  7.1010353828  14.3586264175
H  35.2324605700  7.4381814582  14.5337059106
H  36.0470146859  6.8955625027  13.4163358656
O  4.6644386242  8.3393040044  27.6669799942
H  3.6930061386  8.2276348901  27.3995387012
H  1.9985568969  2.8431639058  17.4176770214
O  31.7418436619  36.4258061496  15.4597323909
H  30.9156523051  36.0563199701  15.7942380412
H  32.3926880511  36.0198827699  16.0658849151
O  35.6882528332  25.5852636125  20.6550704112
H  34.6810916726  25.6900542129  20.5961297830
H  24.4447491196  23.9568336771  17.4289452759
O  25.5044331393  8.5931755445  12.6630698326
H  25.9462137085  8.8808273410  13.5075867549
H  26.2314097755  8.5082843746  12.0288687848
O  2.5644492375  20.8775147573  13.1941722194
H  3.1218354928  21.5913372201  13.5401562934
H  2.9192092838  20.1250798785  13.6746877980
O  7.6606619711  1.4287887104  27.1303249241
H  7.7958354958  1.6518066492  28.0526449725
H  26.5577063100  19.9315298244  15.8019764826
O  25.8065010279  34.1300557848  6.2487426867
H  25.7744688337  33.2184534885  5.8741190778
H  26.2133570809  34.1858064763  7.1100642622
O  31.6510929244  6.6252898647  13.9030279928
H  32.1422813377  6.6284329158  13.0747101912
H  30.6765744417  6.6287695904  13.6621373981
O  24.2503470831  32.0910294965  9.2573244644
H  24.6938336839  31.4473146313  8.7018627317
H  24.0119756250  31.4886718167  9.9441458706
O  16.2715885329  11.0651543515  16.8730679067
H  32.6355476375  25.1819786289  14.3186262936
H  16.6688795454  11.5777218794  17.6177391698
O  23.4956293896  31.2594897496  19.3648192042
H  22.8242238381  30.5518178757  19.1304316987
H  22.8865451523  31.9724797966  19.3613475477
O  32.7856288127  23.6477673382  11.2641758314
H  33.1717050825  22.8040133151  11.5158102557
H  32.7900515659  23.5657123559  10.2769064202
O  28.1940290383  8.8581912912  22.2946645673
H  28.2508212166  9.0283082462  23.2353861151
H  29.0052178950  8.3593955540  21.9912106336
O  37.0745178903  33.8187755139  19.4127741865
H  0.5149238749  33.3036283540  19.0019186052
H  36.3095320927  33.5214773869  18.8138407611
O  28.0623235544  7.2873699728  19.6747011025
H  28.3132808366  6.4325623441  20.0009269441
O  35.8406961967  14.5639543258  27.5631248000
H  35.8356743555  13.6153575668  27.5106308489
H  34.8807823808  14.6793061007  27.5787155593
O  16.9201880268  8.3374675489  30.1605142553
H  17.8484532633  8.0221034683  30.3409913916
H  16.4248807808  8.1329229689  31.0560327715
O  34.7719579499  36.7797849994  10.6011647094
H  34.9172249111  36.9467351508  9.6183961465
H  33.9244897694  37.1963744718  10.7656083597
O  25.3874225140  7.2739206891  8.8315406555
H  25.3528143883  6.4088496289  8.3403303772
O  29.4198455051  18.6961138953  14.9700414222
H  30.1635968755  19.1484433634  14.4970339293
H  29.1321502941  18.1095454653  14.2321446999
O  20.5328357399  23.1188498814  22.7320443905
H  20.3945243516  22.8563897776  21.8299517335
H  21.1615374826  22.5000541579  23.1291555563
O  29.8480329378  14.7913125457  17.3075469850
H  30.1027391202  14.2639002859  18.0791090917
H  29.9323718304  15.7584591166  17.6093071361
O  21.6099654057  26.7396299568  19.3300149012
H  21.9796179752  27.6235161213  19.1993824487
H  32.2460449712  26.1911022064  20.5232250668
O  29.2937943080  31.6190003799  11.5353486644
H  28.5813584803  32.1850622659  11.2542569587
H  29.5718512539  31.0380265218  10.7969199238
H  34.3635691686  15.4812057459  22.0828933811
O  36.5594779180  35.0059505407  12.2326812179
H  36.0868268526  35.6615414867  11.6885627795
H  36.5738019550  34.2245452599  11.7169990912
O  31.4685069606  5.9544443235  18.9405002086
H  21.8820657771  3.7559440844  29.3404019967
H  32.4159934412  6.1045415661  18.5983880378
O  21.8149897494  16.1823674259  10.2887714124
H  21.6671600587  17.1168874389  10.3704181053
H  21.3539877786  15.7696418240  9.5013523245
O  0.2635978081  1.1267140145  22.7753522408
H  0.5561707280  1.2430464054  23.6816829704
H  18.7970075021  10.5077224905  20.0289287915
O  22.2112902806  13.0608031081  13.6188595714
H  22.3877449791  13.1105295042  14.5544004453
H  22.2816159817  12.1141480016  13.4329985580
O  35.5837824556  8.3003960064  2.8619319903
H  34.7359685291  7.8025552391  3.0719673315
H  35.8267917137  7.9163780475  1.9709800525
O  9.1651514079  2.7527003384  17.2051745707
H  10.1423475882  2.7462099640  17.2583485718
H  8.8880887837  1.8387436064  16.9999065758
O  29.2039758791  8.1684479945  27.4025456039
H  24.6679964439  15.0816754208  24.6283081232
H  28.6903322071  8.5665874943  26.6325242797
O  2.1279362216  5.3607343675  36.2937807862
H  1.3748570294  5.8270476976  35.8999943051
H  2.9414428057  5.8683717366  36.0398337409
O  29.7773545737  5.9804416375  23.6867215820
H  30.6435506573  6.1955058011  23.3048506174
H  29.1774478666  5.8520594633  22.9685653408
O  18.1334533632  15.1094062542  15.7035786795
H  18.6240620032  15.4155649537  14.9227489866
H  18.8362972145  14.7617598172  16.2102582847
O  19.6571008063  29.9044052124  14.6549139338
H  18.9993898793  30.0772641927  13.9272645865
H  20.3578843250  29.3015105582  14.3868979483
O  24.9263074973  31.1825470863  2.2691629256
H  24.4865342051  31.9730341761  1.9368018431
H  25.8433949262  31.2890064604  2.0141616688
O  7.3840780677  3.3541583876  13.3547547385
H  7.8628690110  3.1882134442  12.5586346441
H  6.7835815167  2.6251392517  13.5607206279
O  36.4203623118  6.1984450460  23.3545467525
H  36.7513208276  5.3134368006  23.6653577749
H  37.0537074085  6.3060640123  22.5427249717
O  29.6598406127  4.2768816035  17.3769747000
H  30.3280437363  4.8133608179  17.7806761747
H  29.8927796511  3.4011465651  17.6280583496
O  36.1466212415  35.8209993178  24.3397988905
H  36.7515086229  36.4485900849  24.7348589815
H  36.6072610110  35.2733133992  23.7167990668
O  24.7894656419  10.6240944091  23.1788778507
H  24.1147222778  11.2500814666  22.9952481152
H  25.6131037415  11.1691725113  23.1625581575
O  33.5342378837  8.0737967858  15.2936101298
H  33.2790231915  8.0641966187  16.2136618415
H  32.7869791881  7.6278685894  14.8472258536
O  19.2891379314  16.5998908272  30.1605760777
H  18.5175498003  17.0998275096  29.8790085149
H  19.5396866172  17.0395255620  30.9999666466
O  16.7496214324  36.6028411755  23.9827249333
H  17.3761312615  35.8902616822  24.0779835430
H  15.9732783336  36.2440443461  23.4223952479
O  26.6275028406  35.0675518326  8.4304243353
H  27.1749157266  35.8159393251  8.2457637499
H  26.8088915415  34.7281196722  9.3166470569
O  28.5713105905  27.5426399139  36.6116353913
H  27.6331167161  27.6743635412  36.4159247830
H  28.9323676623  27.8314939686  0.2116616665
O  35.4628433905  3.8512825965  12.7593255751
H  35.9968592346  3.0406410247  12.5390386327
H  34.5241881592  3.6715241566  12.6043612849
O  27.9594047282  2.8306566438  13.5041349436
H  28.3891675455  3.5304194245  12.9387048564
H  27.6070008349  3.3611583775  14.2580636282
O  36.9345244776  35.7073141907  31.9486261991
H  37.0186199002  35.1703433065  32.7353286850
H  0.5794064922  35.7749391365  31.5829231387
O  23.3298989227  7.4074179595  19.1362806354
H  22.7120490886  6.7115663299  19.5333767713
H  23.1885264696  7.2814296284  18.1576784263
O  12.0191197527  3.2066779964  21.9215909130
H  11.8573343895  3.7347353237  22.6822983643
H  11.6957839196  2.3354215891  21.9214955765
O  35.7091005761  2.3575676683  35.4848125415
H  34.8297321092  2.5633056989  35.0784910377
H  35.9581306980  3.2277542408  35.9036998041
O  0.4219496502  5.1915445953  15.8619658127
H  1.0929580045  5.2555798944  15.1477202795
H  36.8952438883  5.5622966962  15.5102901862
O  23.1335686688  5.8797319270  5.4589882113
H  22.6677092155  6.5819199248  5.9777309753
H  22.5319157512  5.1232589440  5.4910312527
O  19.7292589296  7.8629587148  30.5548889455
H  20.1394374075  8.7115260290  30.5468527884
H  19.6822907684  7.4173360315  29.6910096988
O  8.0128286134  11.8425432286  31.2938309279
H  19.3301487032  19.4225686405  14.4912282007
H  35.9124118045  9.5193191246  22.0277149117
O  27.9952301603  15.2444733866  32.1922509236
H  27.5675694482  14.9389025937  31.3494382417
H  28.5710286060  14.5346573034  32.4704542863
O  34.2567438229  28.0754141778  8.1218802982
H  34.7577157531  27.2575468500  8.0988406512
H  34.0521134179  28.3482452076  9.0138916589
O  27.1736125293  5.7148537089  29.7094565898
H  26.6981954958  11.2438274552  16.5641971969
H  27.6576976573  12.0644336773  17.4628730350
O  6.4210352423  1.5526120565  34.3253193780
H  7.0832720710  1.8255928998  33.7139967671
H  4.6903101456  8.4161023741  28.6873831293
O  4.3899403845  4.0159807694  25.6254124672
H  4.2099277449  4.2679158640  26.6048917654
H  4.9644127950  4.7581436639  25.3778470584
H  16.5467251916  5.9763076469  18.0699054504
O  8.4185355943  34.1815079150  26.0000952603
H  8.3588312378  34.8750513648  26.6977301630
H  8.4186645815  34.5386024076  25.0468033022
O  7.4037616601  26.2296916857  25.9712095083
H  7.0357763228  27.0637008999  26.3872212185
H  8.3073659955  26.4962077929  25.7485438133
O  6.7779700400  6.3280596599  36.7395039719
H  6.4497445270  5.7069902398  0.1527714751
H  22.9730640121  2.7256586267  34.5120461308
O  35.5657754839  6.1805206499  11.5193983114
H  35.6686120953  5.3250331786  11.9706889888
H  36.4226454816  6.3428053858  11.1467104239
O  29.5587617566  34.5401455813  28.4711040528
H  29.5896867157  35.0189306947  27.5867750299
H  28.7357888692  34.8668591191  28.8087224507
O  32.6280476104  27.4848162843  27.5487283083
H  32.3079221488  26.8886548903  28.2628672274
H  33.5788984544  27.3494818266  27.5183302201
O  28.8469623177  16.0017814063  27.4006196630
H  0.8486817881  5.2199999500  20.7257777191
H  29.2492274454  16.8946019473  27.5360947598
O  34.1408544092  31.3456766037  31.7226012754
H  34.8091004624  31.4854732186  31.0045550995
H  34.6147630103  31.6478238408  32.5189548306
O  28.9563293853  20.4549209666  3.7798238488
H  29.4948028145  20.4356166922  2.9591811225
H  28.7789403660  19.5126431912  3.9845097464
O  3.0169334488  34.5916416187  9.5090788581
H  2.6911970782  34.0693555510  8.7857268685
H  2.9509959262  35.5348576251  9.1636339930
O  28.0103506382  32.2127973794  27.2994810766
H  28.5134703138  31.8959617413  26.5437996576
H  28.3207398455  33.1328910406  27.5189382885
O  17.8441913213  4.6386113885  33.2283542619
H  2.0772797404  3.4502148648  35.4371495534
H  18.6472005727  5.2099335391  33.0984754368
O  3.6514879271  1.9791215436  33.1641766843
H  3.1742371054  2.1881398012  34.0314369656
H  4.5473461432  1.7123739655  33.4328477141
O  35.0948748180  4.4950139127  20.7217339144
H  35.1669678672  4.9587578818  21.6096603662
H  36.0323825223  4.2752226716  20.5498012760
O  26.6271909507  2.9942296060  28.2864549824
H  26.2580046445  3.5777112249  27.5517288507
H  27.1742391116  2.3617601489  27.8111039682
H  24.8137662451  36.6565486175  4.9352873922
O  35.5735609669  11.6549559363  26.9926512759
H  36.5050573214  11.4425013328  27.1095794117
H  35.1202042378  11.5722094319  27.8197200720
O  9.1882654450  2.2518527697  20.0649553536
H  9.8235991352  1.5104189287  19.8553170450
H  9.0163443993  2.5281092208  19.1650777363
O  31.1705345795  19.1151477226  32.3205784942
H  30.5242680568  19.7518842106  31.9901592150
H  31.5879610376  18.6315609630  31.5840292615
O  21.6346137294  0.4667344435  22.5881833482
H  22.3208535016  0.2941833211  21.9644319645
H  7.9795399908  35.6278302045  33.6418162204
O  23.3014119723  10.0294649949  11.9173864672
H  24.2228003883  9.6990674710  12.1630875248
H  22.7176485664  9.2720097012  12.0216045708
O  25.1844246282  2.4709542793  2.3543437454
H  24.3462179345  2.1438295398  2.6367413235
O  31.8967192498  6.7267661728  26.8836814418
H  31.4287903866  6.0924687467  26.3132126808
H  32.4037071305  7.2712532294  26.2624735889
O  22.5790399143  3.4917129655  29.9707555191
H  24.3028520640  5.2520040422  6.5353440221
H  22.4641252461  2.6205574540  30.2770839088
O  22.5699823536  33.2656007651  33.1144678729
H  21.9919018287  32.9332386834  33.7745007436
H  23.4626110749  32.9261379058  33.2228206312
O  27.5804886969  1.8587361611  16.5029573359
H  27.4234286918  1.5074941227  17.3953503529
H  26.6634329933  2.2398623774  16.2857801020
O  0.3717840622  3.5868416821  20.1449154530
H  0.7590757173  3.6111630898  19.2584978913
H  0.9852939066  3.0858360800  20.7144989350
O  27.2881812435  3.2923257506  22.7111571975
H  26.4194068615  3.5994913568  23.0962658397
H  10.3061884652  28.5046181844  31.9437540257
O  4.7090776042  13.9407227490  2.4940774784
H  4.8538694090  14.7728498553  3.0517336348
H  3.9829475759  13.5158240966  2.9634342478
O  20.7004636573  10.4477996989  30.7056289310
H  21.3532386540  11.1001146889  30.3951602417
H  19.8260342780  10.7262715913  30.2797029842
O  30.6278611922  14.8386871492  1.5896337148
H  29.3088067446  1.4934743445  34.5338112555
H  30.0885364175  14.0886008798  1.8892406314
O  22.3119282283  9.0206358549  21.5985810307
H  21.5888954468  8.4606089437  21.4120548636
H  21.8702549259  9.7990622238  21.9291727759
O  8.5458273072  8.8621060019  27.9263006722
H  9.2230516748  8.5197409928  27.3473858035
H  8.6009247970  8.3014075319  28.7202915392
O  1.6734580349  9.7980761652  5.8229750052
H  1.4151563022  9.1382208164  6.4563703620
H  2.6633292948  9.9792685291  5.9191986418
O  2.5004975394  10.8138520498  34.5583331940
H  1.8796565194  10.1439507674  34.2759956199
H  2.9776906211  10.6944840796  35.3544193735
O  35.6849710898  0.9044600353  32.5997836980
H  36.1536105578  0.0938598380  32.3503528211
H  34.7890890827  0.6689750063  32.7994302895
O  24.7181767242  4.9663907240  33.4496087179
H  25.5429351224  5.1026399867  32.9548275342
H  23.9788451585  5.0684284914  32.8122425420
O  29.6599543623  2.4300399688  31.3135353113
H  30.1813837946  2.3259157783  32.0934110131
H  28.8288992941  1.9433793218  31.5314847812
O  30.4743022600  23.4037510688  2.2583889089
H  30.0617965706  23.6468931821  3.1299647454
H  30.5163960955  24.1854122987  1.6833761789
O  29.8722511274  17.4202801973  17.3002792091
H  29.8279228001  17.8193628380  16.3392049448
H  30.4583573013  18.0988367527  17.6928160740
O  22.0986778921  33.9764889100  36.0712915071
H  22.8551009235  34.4554181480  35.7353790543
H  22.4424498259  33.2943431859  36.7502447997
O  6.5064380167  5.8928776082  27.7349012666
H  5.6372028314  5.5893939308  28.0027744362
H  6.8450969796  5.0869534141  27.2727748547
O  11.0965061170  8.0423527979  8.0414935635
H  10.4743549080  8.2319089802  7.3087991313
H  10.9823066457  8.8300008493  8.6704897222
O  27.4353758621  4.9324766294  32.2977199458
H  27.3545966088  5.1237017364  31.3568481392
H  27.7416857308  4.0489823293  32.4292601129
O  9.2963314434  3.2487366093  35.4224341801
H  8.7335479098  3.1237898182  34.6354028266
H  8.6463969497  3.2115930881  36.1666828135
O  31.8888555245  0.7811780029  24.2184999126
H  32.0865835528  1.5563143173  24.7888242959
H  30.9760955021  0.8748387530  24.0257841537
O  30.7608373314  6.9215904629  30.4761051251
H  30.5126221936  7.0489477852  31.4024669956
H  31.7518753304  6.7741532430  30.4104435768
O  4.1740443171  14.7035552156  24.6144911234
H  4.7995343748  14.1394913222  24.0969908642
H  4.6047553328  15.5971153012  24.8161915749
O  15.0439096361  7.4711050459  32.2846013025
H  15.2832202761  7.0184348335  33.0858012532
H  14.1490450713  7.8726913430  32.3957615381
O  31.9439504612  33.2046628761  29.2218220669
H  32.2997275971  33.9591535967  29.7110157672
H  31.0482397409  33.5875112787  29.0127831360
O  20.3121238730  32.7274624819  27.4948037460
H  20.9805433290  32.8726887276  28.1859414322
H  20.8001370744  33.0604473320  26.6976669268
O  16.9061270713  6.2658237954  28.2621729137
H  16.1626612265  6.5010696190  27.6426708470
H  16.6672136434  6.8279591685  29.0182440007
O  12.3874352079  29.4173652007  19.8267339804
H  11.6817314144  29.6107659959  20.4601275141
H  12.6746433552  28.5289432270  20.0376000746
O  27.6712241763  9.3240349177  25.3721764115
H  26.7493570813  9.4887065367  25.5593990318
H  28.0840016549  10.2195618403  25.5458764959
O  31.2034950017  21.1239648298  36.9850447439
H  35.8935030844  8.8903100315  20.6566285435
H  35.6531040337  8.8714361021  33.2844556864
O  31.1727046727  12.9960893235  5.1504870983
H  31.9613743858  12.4956921656  4.8605869700
H  30.8339211325  12.4717648323  5.8732617098
O  19.1779101384  35.3942481111  25.2018982665
H  19.5473760786  35.7423803200  25.9908664143
H  19.4066491465  34.4209514673  25.1982634763
O  3.4694863531  16.1860043953  7.9401758832
H  12.9571865646  21.8407507669  35.6277200866
H  13.7368346980  23.0743896470  35.4531182698
O  31.5259280915  30.6145667493  19.1082068109
H  32.4671294922  30.6313149559  19.2000528834
H  22.7959223935  23.7690882240  25.2675645310
O  26.1764392740  23.5933900921  35.1449313226
H  27.1425112758  23.7900568282  35.1529017253
H  25.7631419347  24.3406478877  35.6024573828
O  35.3994783191  16.0323100036  10.6270279454
H  35.9314184744  16.1249119110  11.4537280448
H  26.8231114035  27.0692741319  2.6656483791
O  4.8588376948  1.4291960696  25.2343530951
H  3.9497341565  1.2004195440  25.0166128380
H  4.8641147666  2.3504685662  25.3393333406
O  30.7101543987  16.3890280459  9.6626073474
H  31.2318657941  16.9995826285  9.1339453661
H  31.2238607530  16.6059595490  10.4636594969
O  34.0220718592  11.8076265225  20.3298210842
H  34.7365180085  11.0998660300  20.3441503509
H  26.8417606487  33.4956584045  11.2870478952
O  28.7608746893  33.5603994633  33.0938077277
H  28.1954122354  33.9498789074  32.3880979537
H  29.6447707027  33.9804087457  33.0262759290
O  23.9894308306  7.0492056756  34.9180173499
H  23.9998525549  6.4372339054  34.1693465946
H  23.1680597500  7.5768338349  34.7197477982
O  33.5445715238  11.5852565230  4.8242319272
H  33.2607425747  11.0708244706  3.9671521596
H  33.5195758698  10.8208695128  5.4734162878
O  24.8958215832  23.7997930569  11.7370407286
H  34.0067473219  4.1615589392  32.7570806382
H  25.5712176424  24.4756034402  11.7602084474
O  2.9246399358  27.8649941567  30.8409083887
H  3.0862737570  26.9748373814  31.3499273344
H  3.5724453530  28.5812135153  31.2287895611
O  25.9504131046  19.7222245091  4.7523452021
H  26.3878238015  19.5703959996  5.6124295508
H  26.4593359580  19.4172508404  3.9631636750
O  13.9136951547  14.2096719841  1.7271770014
H  13.0626417951  14.5824590760  2.0569132880
H  14.3924869027  15.0056113918  1.5784514613
O  0.3139298576  10.3998610119  3.7008889906
H  12.0930013554  24.8179840632  28.5101251806
H  0.8555734680  10.0539243712  4.4227546511
O  31.8074443090  33.2397230858  6.2026758171
H  31.2087262425  33.9468209420  6.5652261051
H  32.6345244972  33.6043035716  6.5839075423
O  32.8084397283  16.8677332373  36.3871007329
H  33.2859457539  16.1146337060  36.0050608265
H  33.4605084571  17.4734574796  36.8567895638
O  17.8806888934  5.0738565629  4.8224231664
H  18.0007083178  5.8901131113  5.2882051786
H  17.4476915148  4.5097509857  5.5007248035
O  21.8518381781  18.5244495086  4.0915404101
H  21.7646136174  18.4461667938  5.0248952302
H  28.0942600262  28.0303915521  8.9985552031
O  30.4816450860  26.2748663149  5.2421393470
H  31.1117376264  25.9317376837  4.5700546826
H  29.7062648482  25.6402669148  5.3269729095
O  31.5301748754  10.1740863574  28.8246959825
H  31.1936472211  11.0895385795  29.0551744833
H  31.6141659721  10.1736527027  27.8331440127
O  24.5592573621  20.1120126314  7.3819319075
H  24.6889937985  20.7958733234  8.0404499543
H  24.4775191503  20.5694382738  6.5445089628
O  24.9357193365  21.7430842292  32.1725328045
H  25.6973844441  22.3860193066  32.0838860002
H  32.2999429473  14.7170401150  26.9405573636
O  20.7846369194  10.2700978586  4.0545659957
H  20.0013126927  10.2864487069  4.6168300333
H  20.6778811824  10.8835830630  3.3090937641
O  5.1599521226  14.5587758314  21.3693178317
H  4.8199306166  15.4058281057  21.6058047905
H  7.7744363392  36.7354574363  3.6917029466
O  3.8361332641  5.2425147619  7.0739135626
H  4.1422224055  5.5531602425  7.9531357435
H  3.5702009628  4.2786467220  7.1489164019
O  26.3306486832  14.0866809937  6.0204904662
H  36.6054998253  17.1894837078  15.9060452648
H  26.9333637847  14.2445972256  5.3053933616
O  19.7596706352  22.1528763650  2.3172387980
H  19.4255525566  21.2100490661  2.2424136712
H  19.3790082685  22.4594891887  3.1927898583
O  16.9125558063  28.9555619778  34.0681302449
H  15.9864269680  28.6298385147  34.2343990317
H  17.4821770750  28.4377397369  34.6219372657
O  1.1503096098  0.0396080585  2.7462334482
H  0.6535033193  0.1113173323  1.9219366565
H  0.5269965085  0.2166825977  3.4451632818
O  3.9377151517  18.1898111243  30.8600236792
H  3.0210385882  18.1431077185  31.2088309784
H  29.6267901277  7.7106653478  3.5582911812
O  33.6692409872  16.6761052728  4.1098897349
H  34.1934306934  16.1885533565  3.4151943645
H  34.2725146013  17.4083105789  4.2660942756
O  36.2760847558  22.5646017246  5.6093978690
H  36.7048183202  23.4397069448  5.3396133566
H  35.8992505670  22.1313702666  4.7792726865
O  36.9241799036  25.2158472253  16.4410033583
H  27.3662666588  7.2189871742  25.3911227613
H  36.4309766371  24.4435602661  16.0569553240
O  33.0233358252  12.4090065968  10.5049223356
H  32.2276844024  12.9214831233  10.1842503401
H  33.2342558275  12.7311845884  11.4384732855
O  23.6111191534  15.1764811863  12.0106718150
H  22.9067474199  15.5230807255  11.4324390855
H  23.1070156112  14.4919297272  12.5204002196
O  20.7704803571  25.1311645022  9.6224877264
H  20.1678127143  25.8960726845  9.6294813874
H  21.1444374341  25.1066923259  10.5237245662
O  4.6247552183  8.5712887621  15.5371763325
H  3.6880989495  8.7525215253  15.1802855603
H  5.1054322538  9.4895107242  15.5587511662
O  9.0633040655  7.8305530124  5.9392724859
H  8.6531372246  8.4740485362  5.4055093148
H  8.4121951373  7.3373322077  6.5432554607
O  26.6223867922  19.8981627192  34.8343724503
H  26.4606749804  19.0392314967  34.4852937005
H  27.3835516560  20.3393602795  34.4051264047
O  32.4151278047  22.3771710300  15.3569418339
H  33.4164983526  22.3938119708  15.2066957864
H  32.0436795836  21.8705723480  14.5731571085
O  24.6852952542  24.3431035224  29.3598456145
H  25.1782327745  23.4596865589  29.3526819245
H  25.3014680036  25.0319769848  29.5584035135
O  30.0905467808  30.2731907165  9.3302818200
H  29.7264243600  30.9987144568  8.8004005787
H  29.6500945134  29.4468279472  9.0701734916
O  20.4978138832  21.7330403725  33.9429023055
H  21.0189405525  21.0786466981  34.4320281232
H  19.7999329103  22.1117847770  34.5537092414
O  30.7195022311  13.5378388627  9.4285190309
H  30.7898390937  14.5360460071  9.3608152284
H  30.2026983356  13.1322834870  8.6538441671
O  35.8747660817  8.0676116539  25.3243176262
H  36.1544079332  7.4589013545  24.5683426762
H  36.5318438212  7.9579249749  25.9828065813
O  24.3264174032  11.4508061627  33.8010560084
H  23.3685461492  11.6661192704  33.7741145381
H  24.5797698700  11.4872293031  34.7472180881
O  0.5433584712  2.2442917982  5.8510500042
H  0.2376238533  2.5008278097  6.7300400113
H  1.4768949047  2.5351251333  6.0353172389
O  3.4607028351  7.3843954327  12.6118937440
H  4.3348504105  7.0483017413  12.3244255348
H  3.1013322158  6.6137702319  13.0816227074
O  8.1004935597  10.4768487715  20.0037038705
H  7.2327398274  10.4680939305  20.4660653613
H  7.9615403748  10.3269694970  19.0162578572
O  33.0961580620  7.5546917431  22.2579958854
H  33.1760015271  7.9316919970  23.1724509077
H  33.8284257819  8.1137698336  21.8880536235
O  22.2577305224  20.8514873932  14.7174232296
H  22.9895617274  21.4369331070  14.5181136700
H  22.6816279609  20.5831739108  15.6212432858
O  10.3346621405  26.5473536936  8.8437229258
H  9.8533831117  26.0626602586  9.5587927517
H  9.6918804919  27.3030013444  8.5681954850
O  1.3966533834  11.1968053146  30.3221423497
H  2.3159973221  11.5082499915  30.4100803634
H  1.4373188093  10.2919436350  30.6031426518
O  21.0562259095  15.5338996027  2.2112469755
H  21.2166611341  14.8711419451  1.4981692895
H  21.9633421634  15.6691248076  2.5725224470
O  22.5279906416  23.2951606985  7.3452456521
H  23.2337145454  22.6248874002  7.1971687425
H  22.1766099798  23.5778303719  6.4581557173
O  2.3862555478  13.6203596141  26.4523809429
H  8.5943414852  17.2854835743  31.3612830136
H  15.4084505969  26.4484664583  15.6840686833
O  19.6783425867  15.2372370535  20.4573351533
H  20.1522128881  15.9623094043  20.0186141561
H  18.7592608447  15.2991497194  20.1955718702
O  2.4141830945  36.1119644678  23.2343176437
H  2.0724229139  36.7972831418  23.8846858244
H  2.7838352371  35.3830647273  23.7659277758
O  12.8866748388  7.6531440682  18.1892829873
H  30.3582879153  12.7811771861  24.0617589729
H  31.8030602176  12.8104830080  24.4776359166
O  22.3454068246  22.7772045079  19.0236763469
H  21.7838695641  22.0499898358  19.2631753897
H  31.3734799467  30.2276897436  18.2047205637
O  20.0301733919  32.7214794100  14.6347625143
H  20.8863916372  32.8451239199  14.2167456343
H  19.9362610292  31.7245052021  14.7284796938
O  24.7506801284  23.0339031045  17.1903766697
H  24.0086559608  22.4040937350  17.3779763432
H  26.1896005888  16.6757673652  25.6292981604
O  30.4483283736  26.4102310659  9.9648377047
H  29.7701032524  26.9840651760  9.5915162614
H  31.0765388185  26.3310324265  9.2782060410
O  1.7963482732  15.8159612920  17.7374528743
H  2.1523279908  14.9177013169  17.6090204289
H  2.4550087017  16.4110206386  18.1980395119
H  20.7477384228  18.5698540398  17.4253291131
O  36.3168343425  0.8357682212  19.9367732988
H  35.3489675525  1.0599713045  19.8270863376
H  36.6896098704  1.6450032747  20.3015975013
O  23.7582842270  25.5529132312  8.3894051592
H  23.2574907480  24.7520196897  8.1166372372
H  23.0666601780  26.0529515512  8.8425462089
O  14.7893134092  19.0573711361  16.1033018001
H  15.5898831562  19.1475569882  15.5454219112
H  14.4451085576  20.0061924612  16.1968642642
H  8.6279491290  25.6393325650  15.5111668003
O  3.0350064232  6.8615865234  32.0870082597
H  2.5208069759  7.2604510082  32.8743601959
H  2.4930464984  6.4619489759  31.3679629582
O  30.4226640334  26.3779147187  19.6144180984
H  30.2995567863  27.1141314891  18.9969942419
H  29.6586824963  26.3838928019  20.2104733569
O  25.0670427869  17.9489711187  28.3811155726
H  24.7981682054  18.8295976040  28.0268779192
H  25.7208443363  17.6510131496  27.7126031938
O  20.2608132165  33.0339160023  19.2736972695
H  20.5723558115  33.8094746027  18.8110230672
H  19.8561096792  32.4487571302  18.6202105129
H  30.5146728878  31.6825057636  14.8721087194
O  0.7235324551  10.8459808045  27.5423579313
H  0.6551219316  9.9649693486  27.2323566095
H  0.7845330844  10.8091083217  28.5531710010
O  29.0234574843  15.2130071241  7.8103882497
H  28.5070837279  15.0556288003  7.0017511105
H  28.4887141719  14.9628663351  8.5654441528
O  33.5940741913  17.1515220112  24.7503629763
H  33.1819962485  16.6293037692  25.4829268795
H  32.9600359072  17.6288766155  24.2406405473
O  28.9274493450  27.9987332666  8.4741148171
H  28.8019338971  28.1432143562  7.5025592908
O  19.6881747053  30.7484620068  17.6934425900
H  19.7825390615  30.5079877875  16.7077588316
H  18.7672403095  30.8739167851  17.8868737013
O  32.4875598760  34.7261453419  19.5005218348
H  32.9448195365  34.8558680660  18.5857741945
H  31.7488669898  35.4122086989  19.4725746660
O  27.3202691672  28.7689043683  25.7019980795
H  26.3677001103  28.8515307505  25.6204094698
H  27.3827093493  28.0948230843  26.3566732993
O  17.0521112732  10.1627483368  5.3120612662
H  16.6754349589  10.6639661296  6.0858052652
H  12.8572525149  14.7353886971  17.8585765740
O  0.3029384466  15.0660681518  19.9531428032
H  0.5296454069  15.2988381625  19.0429359553
H  1.0923040059  14.6158726620  20.3768348975
O  9.6742889082  15.4024773648  24.8120493623
H  9.8224557721  16.3040856989  24.4440594300
H  5.7250000330  14.6344398852  20.5770427554
O  5.9585304643  23.2739512263  9.0577949218
H  6.4497988475  22.9983981624  9.8305405485
H  5.0314493070  23.1493672475  9.3919969460
O  36.5103325830  16.7384890005  16.8080194418
H  23.7338085863  0.3168117574  33.5406684111
H  0.1094427689  16.4271830097  17.0112013924
O  27.4977300275  14.7347045084  16.1431530445
H  28.3960325848  14.7066005085  16.6084412140
H  27.2914263864  13.8088579752  16.0159871211
O  16.5547176594  19.9988221119  9.9033868667
H  17.1159003509  19.6054736395  10.6358642842
H  16.8095416489  19.6396966467  9.0944636561
O  22.5619599021  28.1669384953  11.6900582199
H  21.8911461006  28.0832377979  11.0202962530
H  22.8225713362  27.2491766773  11.7692673434
O  11.3538808842  11.3568695669  23.3879799151
H  10.7757011388  11.7946155392  22.6972961887
H  23.9336275252  13.4029259708  5.4858851617
O  2.5057554766  17.4706081539  24.9183357093
H  1.8582653470  17.9973818394  24.4291925684
H  1.8393404245  17.1533033863  25.5188821174
O  16.2943846785  18.6546604494  26.8917901556
H  16.4006925884  18.3226069100  27.8166753908
H  16.0347326933  19.5837856744  27.1183801646
O  23.3143758372  24.6914772378  32.0651390209
H  23.4740817029  23.9974701335  32.7557413948
H  23.5111125216  24.2528310124  31.2127539879
O  28.4216415227  27.4380123485  21.1983869682
H  29.7011280335  7.5007225930  26.9006457852
H  28.4761723239  28.2924762051  20.6691338686
O  32.0941207176  15.1219117433  21.9166979316
H  31.5444575376  14.5417930278  22.5126998879
H  31.8096969611  14.6710364734  21.1079358862
O  34.3215883207  18.9721214426  29.6783777698
H  33.4276652932  18.5180025253  29.6841968102
H  35.0233786036  18.5212662316  29.1839545478
O  2.0277190474  11.2014218823  21.7783688348
H  1.7363344425  11.2628081637  20.8378081779
H  3.0284685478  11.1265725256  21.6979660084
O  7.4558383058  4.9602084424  23.3412319180
H  8.2091039019  5.2885642586  22.7750778968
H  6.8401257661  5.6629453046  23.5720323903
O  35.4263193652  12.7666406633  23.0916190670
H  35.2038382782  13.7105621792  23.0259276459
H  35.2978499599  12.2963431996  22.2485672346
O  30.0695669724  18.3244734234  28.2371333617
H  29.3451525485  18.4696767838  28.8413184529
H  30.3265941528  19.1998013132  27.9814721622
O  25.4678708426  16.4058613231  7.2733336772
H  25.8731371629  15.5498851787  7.1344465373
H  25.2823011013  16.3786874535  8.2257820176
O  32.6539110986  17.9176920513  22.4328888529
H  32.1175054524  18.6037067216  21.9392194156
H  32.2292447339  17.0464087642  22.2229676311
O  28.8895463563  17.4359243619  4.2504954420
H  29.6845747367  17.5136757351  3.6358554671
H  29.3414749958  17.3945940515  5.1289072322
O  4.7515168384  20.8277642963  31.0945915673
H  4.1227903507  20.2406879013  30.7458650991
H  5.3478734763  20.2656481700  31.5676099017
O  36.6582372870  13.3219566447  30.6647980529
H  35.8558784444  13.0780258722  30.1803405496
H  37.1925269156  12.4900841770  30.7245501867
O  30.7329535407  13.9467711320  27.5424791690
H  30.4198403153  13.3871602538  26.7432228234
H  30.1021073019  14.6946665902  27.4887945809
O  36.3885009393  6.4860429748  29.2983389783
H  36.5539185690  5.5219941182  29.3706110373
H  36.6035196561  6.7920223315  28.4244767137
O  1.7829505343  5.1094360291  24.7193508464
H  2.5266556348  4.6133867572  25.0831544412
H  1.5460952801  5.8389378373  25.3424275398
O  30.5095070075  7.5959977588  21.4100913084
H  30.6981287347  7.1324853615  20.5593160902
H  31.4261548234  7.6228861675  21.8434623092
O  36.3983861782  16.8612823689  25.9791889389
H  35.6425977755  16.8421906518  25.4487349944
H  36.5492685974  15.9370141055  26.2779805650
O  25.2386482080  19.5442087390  12.1199756384
H  25.2810568786  18.5939621456  12.4719280833
H  25.8288081294  19.9844003015  12.7191386492
O  5.2193938159  17.3517731707  25.3993820396
H  4.3334843553  17.7447524147  25.4825854278
H  5.5581588522  17.2314338879  26.3014231775
O  5.3614678258  7.7136019649  21.3905257000
H  5.6399082690  7.4022604210  22.2684023282
H  5.4475610292  8.6824958871  21.4251059041
O  25.5151078621  16.7643896649  15.8893266879
H  26.2288608906  16.2392200554  16.2908091122
H  24.6571762510  16.6384370339  16.3266433644
O  29.5930679712  22.2257238991  8.4020651396
H  30.4606692685  22.5613256490  8.1338008482
H  29.0638420653  22.0556500334  7.5659508067
O  31.7941152486  23.3633976611  24.9842189740
H  31.6353190774  22.5603616099  25.5376333858
H  31.4607519574  23.1301336828  24.0959648323
O  13.0141381308  12.5972047857  20.7950891720
H  16.5362070751  26.0949302070  14.6388951452
H  25.1777143184  11.5348378245  28.9485329156
O  37.2592176012  24.7644482719  31.6579354392
H  36.9623294027  25.0580708988  30.8070281614
H  0.8927173069  25.1431481441  31.7159581511
O  2.7841978833  22.5763692776  17.4322518900
H  2.9749682522  23.0433351042  16.6070366013
H  2.5380972114  21.6970689186  17.2467919023
O  26.4523527839  17.2302208268  34.0175354834
H  25.1351434826  11.2348229335  37.0517701582
H  26.5232846719  11.8405306520  37.1634482023
O  21.8909002646  23.9046319014  25.5245039601
H  22.0075118444  24.2949836900  26.4296478849
H  21.8593697179  23.3221994135  18.3703746543
O  15.8144942036  31.6358129040  34.5410012200
H  14.8442046210  31.3798962453  34.7955387212
H  16.2636532421  30.8322356318  34.3564719002
O  16.6140780901  6.1415514586  17.1132488291
H  17.2004750692  6.9248153975  17.0042195220
H  12.3408374703  37.2499982900  29.5822673187
O  9.9496647207  12.3421712755  21.2772357518
H  9.3716532644  13.0654226218  21.5661676756
H  9.4106219204  11.7305020512  20.7698315438
O  2.8983179657  24.9481476265  0.2652770707
H  3.0733557002  25.3393761326  36.6622912797
O  33.7529954205  14.6671911026  35.0906577309
H  34.6370291953  14.8368726760  34.6811006578
H  34.1064415171  14.1234190748  35.7880561021
O  14.8458180539  26.7946955856  17.4629419479
H  15.0389770577  27.7973756792  17.4841675257
H  13.8941040556  26.7342335510  17.5253034393
O  31.6476112173  19.1616009860  18.4035711623
H  8.2029279247  35.2675494645  23.0840987364
H  32.5801646828  18.9459525123  18.2117233903
O  23.0712632308  20.1245130753  33.9435051231
H  23.0348319480  20.3162582956  33.0152698241
H  23.0625285693  19.1829320967  33.8989909678
O  4.9883689191  36.8318187115  21.8555674758
H  4.0850880339  36.9653166109  22.0401616447
H  5.4762062503  0.2940233341  22.1949080391
O  27.3091410921  23.1221326695  32.0438807427
H  28.1276379038  22.5758614965  32.2431528569
H  27.4054853705  23.7810975188  32.7823278437
O  36.3674843790  25.3051654230  23.4930395113
H  35.4657517044  25.4542815392  23.2090597482
H  36.8813909208  24.8459186815  22.7741612297
O  1.9030581066  2.6107120220  35.0446969827
H  30.1688412524  35.6394758477  1.6154675442
H  1.6701416469  1.9906193234  35.7284728088
O  4.4017604441  4.7468824187  32.8241003948
H  3.6451068027  5.3131414971  32.5230222883
H  3.9826839784  3.8449547803  32.8620278195
O  32.8517867062  22.7583169156  32.0523332163
H  33.4341820331  22.2953260030  32.6474298900
H  32.9446929264  22.3220328678  31.1706188613
O  29.5490186027  6.7679010850  33.1301093250
H  28.8596900240  6.0882259406  32.8384859936
H  29.0206551781  7.5461495026  33.3215455199
H  20.9738766475  18.6511640172  3.7026784643
O  36.8546510104  21.5798645045  30.6025715886
H  36.8230526422  22.5245389346  30.8096692227
H  36.4022237152  21.0495492272  31.2463852523
O  33.9938313420  20.1650351724  25.3522790498
H  33.9491606797  19.2376032681  25.1000096954
H  33.1337480951  20.4432378326  25.7648265368
O  5.3712224199  14.4929329753  9.3511569489
H  4.8497902639  13.8577993049  9.8857189688
H  4.6680213648  15.0266432574  8.9340510613
O  2.4927012739  6.9838662004  2.8083821905
H  2.8564077231  6.1202754383  2.5057971818
H  2.2207248464  20.7997663599  32.7025113095
O  26.9982650452  22.4366947282  3.0589908063
H  27.1786246769  23.1686545928  3.6672813418
H  27.6186835410  21.6897871132  3.3389635416
O  7.7307130115  36.3456904960  4.5605324740
H  7.1364994555  36.9667033610  5.0312998034
H  10.3637137743  14.9763132210  24.3017595523
O  1.4225159914  19.3930830298  21.1529336438
H  1.1029556270  18.7378024532  21.8482686924
H  0.6465076903  19.8617225853  20.7746066543
O  24.5774170305  0.5535641239  33.8591462555
H  26.4848849417  13.1341229358  6.3061914159
H  24.2662289401  1.3594468263  34.3990788148
O  21.3700679875  11.0157745850  33.3210338435
H  21.3212272720  10.1818647023  33.8489847936
H  21.2790759071  10.7336336431  32.3392754940
O  31.8562953868  10.3636084423  26.0442692728
H  32.5752953004  11.0433890522  25.9960656880
H  30.9912411804  10.8235152631  25.8810014164
O  3.8480878619  23.1205727334  14.4541348655
H  3.3157758961  23.9161109281  14.4862985915
H  4.6485177294  23.4144630098  14.9719333970
O  10.4996526214  30.1719807156  21.8855869626
H  10.5240172049  31.0064269751  21.4304079184
H  30.0761420109  5.4256034688  29.6216837284
O  29.5666779909  21.1834640869  31.4913460593
H  28.6510291032  20.8745235883  31.2736714521
H  29.8374110955  21.8724702573  30.8295792762
O  22.0611153810  23.2182685567  1.1510352388
H  21.3307479666  22.8858825926  1.7265540594
H  22.5509383321  22.4495621880  0.8890301068
O  9.9620782667  18.3009309712  2.2580218452
H  9.9272203577  19.2162435999  1.9411809109
H  9.9407171596  17.7388977127  1.4762824761
O  4.0176144210  26.7062388814  2.0831422141
H  31.5081359603  14.4067072160  1.7084002147
H  3.6670212247  25.9606237478  1.5111234390
O  22.5000565674  12.3112418954  30.0075415105
H  23.0519011387  12.6887277250  30.7174729657
H  21.9791344572  13.1192823871  29.7175702302
O  27.1101616775  32.1684756100  0.5611678752
H  27.4753739595  32.6868123791  1.3274927452
H  27.7079888585  31.5008766461  0.2336851716
O  28.4776993223  22.3741083856  0.2664471485
H  28.8276696884  22.8068899513  1.0443156793
H  28.9082069626  22.7963692738  36.7764242070
O  33.0253911608  22.8507855714  20.2372456033
H  32.3699057376  22.9204020806  20.9281786529
H  32.6174514105  22.3494549254  19.5036770708
O  31.8968191309  10.9663164801  22.0798929462
H  31.1267540400  11.0556288202  21.4546536831
H  31.7470152489  11.7342375126  22.7091621962
O  27.1827799350  20.1815559729  31.3405936283
H  26.3471118042  20.6547181031  31.5913277379
H  27.1178464058  19.2999873428  30.8669073803
O  33.5834489418  6.9209789163  29.2837332815
H  33.0838745840  6.7419917247  28.4531170885
H  34.4486137062  6.4625327412  29.1866994561
O  6.9244807289  12.6880706112  1.0227856426
H  7.1392589370  13.6271894628  0.9413670214
H  6.0215989632  12.6260860491  1.3909867180
O  37.1944980667  12.9639315936  4.4293795929
H  0.0819903459  13.2004103748  3.5044946682
H  37.2022352362  11.9971641216  4.3805696906
O  7.9790073412  21.6320226982  21.5080725077
H  7.4571462225  21.2737233860  20.7998995490
H  7.4352549373  22.3552021715  21.9398198964
O  33.4546600325  9.2569740109  30.5189786743
H  33.8054867624  8.5369441401  29.9605307505
H  32.8599110237  9.6963243933  29.8997432304
O  23.0425013884  15.7897053294  36.3370644192
H  23.1091063404  16.6869794457  36.7106262047
H  23.9254075242  15.4200878181  36.4627992916
O  0.5637842621  20.9453654751  36.9405264034
H  37.0544260115  21.4769287960  36.8150325865
H  1.2511279481  21.6084737148  37.2590454101
O  7.1973966973  18.9562580982  27.8290377069
H  6.3804439480  19.3019282184  27.4594218415
H  7.0128254075  18.0105697255  27.7619428913
O  4.4025471471  10.9708508090  30.5554281488
H  5.0158284014  11.2104067817  29.8250676638
H  4.5115440114  11.7062280695  31.2264448480
O  23.4913339939  17.2659797857  33.8331034858
H  24.4647551369  17.2857153209  33.7298155010
H  23.3932491909  16.7595932662  34.6860328453
O  24.0757045751  26.1510951784  4.2056176014
H  23.2649619902  25.6227501262  4.5039560756
H  24.6634758846  26.0828804247  4.9805622003
O  9.3239670151  11.2664525216  14.3629388771
H  8.4941511785  11.5408354139  14.8218162239
H  9.0366637701  10.6345013412  13.6498150917
O  33.5828194688  15.3269814285  30.4648020989
H  34.3004982323  15.6690158646  31.0269961505
H  32.8962580176  14.9300169949  31.0891131265
O  8.5833579274  4.7419299121  2.2698054781
H  7.5925642810  4.8065740122  1.9512670551
H  9.1198186724  5.3841198221  1.6934823743
O  26.6698908286  34.8845577848  31.8480645765
H  26.2129651608  34.9381550655  30.9995085586
H  26.5938844350  35.7609960212  32.2438961418
O  31.8260143468  25.1030361250  33.1957312333
H  31.0349161698  24.7399597670  33.6462355499
H  32.1925908309  24.3233756208  32.6872614279
O  26.3751752704  20.6705965330  22.6496314608
H  26.9201846335  20.0950212573  22.1376835858
H  25.4917418894  20.6818351882  22.1627747701
O  30.6458735564  12.4507946967  29.7167778755
H  23.9768575308  12.3416475392  28.5995846621
H  8.8782734067  16.7985094061  32.7734254406
O  11.4688560200  24.6908840117  32.5393605306
H  12.1796684501  24.2983210690  31.9448504376
H  11.8596715854  25.5635381575  32.7510392189
O  8.1554446931  8.1322958384  23.1297499002
H  8.2516289481  7.8294896099  24.0054138890
H  7.4137032782  8.7480741227  23.1540306335
O  35.9437473174  18.6196332717  9.8607389878
H  16.5897263705  17.0543907677  8.2584349865
H  15.5751092909  17.2012168179  7.1363027705
O  24.2437743466  0.1017389154  11.3774145214
H  23.8209774738  36.9480650548  12.1598931078
H  28.8032894803  6.8159372664  5.2187866125
O  17.6697757205  37.1018941093  33.9551637855
H  18.5918247254  36.6875514554  34.0266784230
H  17.1364662448  36.7618314333  34.7119715976
O  27.6368190205  27.0033079616  3.1826870173
H  27.4396045718  26.3757946169  3.8884355017
H  26.0212599019  28.2221413756  5.7982410571
O  22.5111939480  25.1392575934  27.7376005596
H  22.8198252194  26.0869652696  27.6232334654
H  23.1750078699  24.7796463148  28.3667379561
O  1.2592689114  6.9832682284  10.5571499596
H  2.0697555978  7.4010778745  10.9495383599
H  0.8505489939  7.7543575932  10.1344987909
O  10.3399727117  2.7442094452  1.7673022638
H  9.7254226333  1.9625981139  1.7832807131
H  26.6520422720  6.8827763226  5.0441877057
O  31.4718959242  0.9106205673  10.2765232006
H  30.5425321999  1.1989815544  10.1637275069
H  31.4394018300  0.0351167303  9.7821714767
O  32.2583952616  34.3789706823  3.6936481527
H  31.9976793422  34.0234414572  4.5543816962
H  31.5209053458  34.8143180123  3.3294266119
O  31.7645534742  31.1036335967  1.2819126812
H  30.8952667015  31.2189715818  1.6622869645
H  32.1890405513  31.9597628070  1.4809529786
O  27.2195961407  18.7377187535  6.9815095218
H  3.7611555744  29.1987839460  5.3908958944
H  26.5754480991  17.9867727352  7.2078044026
O  9.0334241402  22.5707598819  29.7298565630
H  9.1958669617  23.4559032692  30.0679314733
H  9.6415763320  22.3482918204  28.9729087463
O  8.3544954980  2.7695646047  32.7969030745
H  8.8980547288  2.2419814064  32.2272813685
H  7.7921666095  3.3068194582  32.2450053374
O  25.1437510615  31.9212053861  33.2437671845
H  25.7559162191  32.4795136306  33.7443121099
H  25.6222287469  31.4104812411  32.4900809807
O  32.9587876875  30.3017301845  9.9509164502
H  32.0519872960  30.1237289323  9.5856471748
H  33.0383012521  29.7286564931  10.7311236505
O  11.9320472725  25.7416837742  28.6877467089
H  22.7892200159  3.7844521710  0.7643790640
H  11.9474772669  26.2013329088  27.8181645700
O  1.8137303272  27.9602760732  2.9540884534
H  2.4711051863  27.3591101064  2.6466556051
H  2.1077825154  28.3132173282  3.8562478908
O  25.2042188968  27.1603751291  1.5395320373
H  24.6206260923  27.2601601721  2.4017050652
H  24.9847632678  27.9487612390  1.0454706065
O  5.7702813245  8.4522595464  6.9060283512
H  5.1757816423  7.8781952565  6.3972276419
H  5.3336959284  9.2945831961  6.8447197566
O  34.9954726134  27.3279063204  31.9041599664
H  35.9826971442  27.4242262231  31.6865897592
H  35.8077720467  14.0896858761  14.9670839402
O  32.3287057258  7.0040867266  6.0405049380
H  32.4940405239  7.9265680205  6.3760560846
H  31.3981958115  6.9844055495  5.8314559395
O  0.3202918121  29.2510483817  33.8427696575
H  1.1559107883  29.7387908513  34.0830611489
H  0.4242204212  28.4367496404  34.4101361215
O  2.8217134169  33.0873092001  2.6074222031
H  3.5318343587  33.0884794344  3.2708746107
H  2.6320442333  32.1225603355  2.5002160606
O  29.0730605946  28.4916780363  5.9751737128
H  29.4777750160  27.6640237603  5.5914812292
H  13.4167454557  23.7367367692  13.7356512243
O  35.5241078366  20.9569644443  3.6066380435
H  35.1727785097  20.1962340053  4.1193814591
H  34.6475419352  21.3672271266  3.3251240945
O  32.9781436822  25.8577165396  17.3669769299
H  32.4954455822  26.1420430495  18.2150080299
H  30.4340158734  1.2240150926  29.0003970254
O  13.3298688348  27.0633315955  7.9299371351
H  13.2716870363  27.9469921549  8.2303828586
H  12.4550873435  26.7238260643  8.0215082322
O  35.2430506192  37.2232191227  7.8422545386
H  19.0108773020  33.1934724967  13.3431766600
H  36.1447563912  37.0374271687  7.3640654276
O  4.9423428073  19.0763034580  2.7582547449
H  4.0701559855  19.2457326101  2.4092915778
H  4.9480861147  18.8813250459  3.7215279039
O  2.0110679303  37.1012586094  33.8164354712
H  2.1356848870  36.1728001245  33.4697049045
H  2.7152511335  0.4402434868  33.3683714411
H  1.5338076362  23.2919600222  6.7612566869
O  21.6780825512  7.5980423209  12.3764441899
H  22.2694374904  6.8527540389  12.6614377817
H  21.3565945681  7.4302778902  11.5039489820
O  2.1230253560  29.8767382696  15.3161422904
H  1.3873571530  29.4942318212  14.8086678350
H  1.8204033718  30.2779362799  16.1318973044
O  11.6214633207  1.3364682014  11.5596255166
H  37.0761166691  25.0796523353  17.4124280850
H  11.3932631008  0.4898313735  12.0290546827
O  31.5429270903  26.5822226024  25.0220671128
H  31.6817773756  25.5849749542  25.0704952034
H  31.7428653598  26.9325976642  25.9084762063
O  31.7803437604  29.0256256281  13.2347504158
H  31.0997857520  29.3101955307  13.8134460195
H  31.5498493245  28.1650474733  12.9151648228
O  27.5065275999  5.0198972238  15.5541367051
H  28.2181117046  4.7834061519  16.2210583591
H  26.8439222856  5.5854253508  15.9727723405
O  5.8934440676  21.4941295403  7.0759845243
H  6.8120623592  21.2035701446  6.8277729182
H  6.0229949832  22.1308711238  7.7901639375
O  1.3056391206  3.7844179326  10.6438982894
H  1.7320354484  2.9655908835  10.5835899958
H  1.9104755964  4.4877236162  10.4083249355
O  34.4637964716  24.0703544912  1.3117382912
H  34.1580748652  24.9427558031  1.1144728728
H  34.7943421632  23.7810629648  0.4494832719
O  30.7451312869  35.4706000542  36.9900510129
H  30.5222325592  34.5309522048  36.8111402126
H  30.0569230249  35.9181177789  36.4608566809
O  35.1003090093  23.4677704042  27.9539835681
H  34.6125230833  23.7970391161  27.1634249164
H  34.4705190662  22.9868545257  28.4909229436
O  25.3786956635  28.4586229365  30.5662719300
H  24.7499789452  28.3824189890  29.8137119065
H  24.9177719348  28.1699485525  31.4081640227
O  34.2293780749  34.4887857412  7.5964778308
H  33.8021336998  34.2049201218  8.4015216780
H  34.1964274933  35.4615918468  7.6423341917
O  18.7204518834  25.3206107422  33.6347102638
H  18.5906851108  26.0164840806  34.3064027474
H  19.1055934420  25.7462893679  32.8292484853
O  12.7889878741  22.7865214246  4.0090959752
H  11.7911258305  22.9350961822  4.1705074767
H  12.9511420373  22.7243189187  3.0483282513
O  5.6495749614  32.1089456839  18.0334885372
H  6.0600828781  31.4791223514  17.3844284774
H  5.0200280118  32.5364710667  17.4057527262
O  25.9540908812  20.7983892245  19.0677972347
H  25.7986721563  21.5756346307  18.5069256477
H  26.1140264354  20.0645159382  18.4615517773
O  34.4658792032  28.4257164646  11.4462528441
H  35.3708959649  28.6500511569  11.1758638669
H  34.3480591780  27.4741883345  11.6361562235
O  34.4126957329  21.7081948392  7.3264143196
H  34.9849555011  21.9765953408  8.0620021706
H  34.9301163974  22.1858847745  6.6334374456
O  4.2306759729  28.2296286312  10.0207043373
H  4.1959852770  27.7783982456  10.8833364171
H  3.8735229495  29.1037557693  10.1174967873
O  33.2068797978  33.3773929105  1.2124198403
H  34.0942477514  32.9702475899  1.3667292873
H  32.8823184495  33.7749789819  2.0555165613
O  34.7541294988  26.4819694550  5.3814975853
H  35.2766323605  26.3506362525  6.1946287551
H  35.3824777160  26.4772774802  4.6891289735
O  30.3980681190  3.6078821193  6.9390501821
H  29.4866077638  3.8848407409  7.2605761678
H  30.4072293546  3.6246619743  5.9620024153
O  36.5673362284  1.2515666141  12.1985663673
H  0.2078851750  1.3244396316  11.8254832834
H  36.0393768322  0.7348025544  11.5153947366
O  33.5393438828  33.1044545945  9.8969711552
H  32.8383421390  33.5036891216  10.4502588821
H  33.2145898761  32.2399286115  9.6437371589
O  27.5977700105  23.1672803599  17.1409738856
H  28.0985384452  22.3718702231  16.7992937243
H  26.6729520719  22.9985954449  16.8554767524
O  17.4804763982  12.7835677299  3.7882745979
H  17.4012384252  12.0456272960  4.3593993050
H  16.5939835100  13.1992436872  3.8149311820
O  34.2399794842  27.5427926690  1.2812400872
H  20.5107850840  3.9128236625  4.3223648043
H  26.7859304585  36.5125739410  3.7798229605
O  5.0628791929  18.8228885142  11.8410485604
H  4.5318883466  19.0040312230  12.6184802247
H  5.8870147719  19.2885689913  11.9646969037
O  34.4913418699  17.5008222126  7.3317507542
H  33.5808691449  17.8970230011  7.6216853587
H  35.0579139473  17.8808756132  7.9809732829
O  30.1584114139  24.3951861881  17.6752618746
H  26.5922770649  36.3907464548  20.5830405344
H  25.5217240414  35.3276856692  20.4760491986
O  34.9010892331  4.5564360171  17.8591014229
H  35.1111114704  3.9242960587  17.1657661772
H  25.0552514527  0.5661113137  11.6054445715
O  26.6517660260  17.3031414675  26.1912323189
H  26.6968029935  18.1452966905  25.7262693798
H  35.9024706782  26.5038343869  20.7563575195
O  35.2374781314  30.9530553272  13.0981802098
H  35.5904912046  31.3471401529  12.2794050984
H  34.4765561212  30.4209654895  12.6778270810
O  36.9434182600  28.8492739451  13.7184766314
H  37.2426940273  28.7210318568  12.7938491711
H  36.3144635748  29.5938319275  13.6631848058
O  2.4873741950  1.2195005636  30.2969905074
H  1.6540419800  1.3900120619  29.8197907099
H  22.3548425873  29.7027893267  22.2524036550
O  26.2552809487  35.3336205200  17.2420211959
H  26.3096835033  34.4019396124  17.0156509981
H  26.3911667221  35.4745815300  18.1502915479
O  27.1468091595  25.6214515308  11.9952010549
H  27.3377344123  25.5672240079  12.9426810448
H  27.6801468370  24.9845769883  11.5205917386
O  12.7893214438  17.4870292639  14.6414395354
H  13.6311840742  17.8189659934  15.0539622650
H  12.2180082189  18.1612017310  15.0272968823
O  23.7322449901  3.7397998524  12.5510852199
H  35.9506496585  19.6366425362  20.4206513423
H  23.7093345669  4.7179501756  12.7758655106
O  32.2472962318  32.5425568866  21.2201463821
H  33.0150876074  31.9848011271  21.3980745389
H  32.5680431920  33.2806993825  20.6846543235
O  24.0047901568  10.8781209840  15.4189840705
H  24.1145392335  11.6587437380  16.0284115489
H  24.9141785327  10.5414156274  15.3047332283
O  31.1440514851  31.9747804717  15.5686925545
H  28.7940652327  7.6546601835  19.0853427395
H  31.5777723912  32.8186529848  15.1462003664
O  4.4949775799  6.4059843488  35.0029112394
H  4.7847355888  5.7451733153  34.3325889386
H  4.5333292198  7.2695757627  34.5016185612
O  26.5487210186  31.7005764749  19.2724190484
H  26.9093647980  32.4848660320  19.7856587176
H  25.5935913918  31.6741451788  19.4449425864
O  36.1513359275  32.4650106919  10.8342807839
H  35.1965953746  32.6234937835  10.5559204796
H  36.7037516189  32.0519231429  10.1860707479
O  36.4465310880  13.8628717140  14.2477495501
H  37.0317538375  13.1966952711  14.6038299349
H  14.7966960092  33.9050597817  29.8098214588
O  27.9369323315  22.9401002866  22.6626250054
H  27.3385815019  23.3681266277  22.0190331563
H  27.6280963251  22.0364350195  22.5418621379
O  29.2250908563  12.9595309705  3.2251264997
H  29.9224236771  12.7162661876  3.8597083416
H  28.7863156151  13.7177619193  3.6491678809
O  36.8954161907  21.2938999531  13.2814440903
H  0.5811820132  20.9921469832  13.2955753000
H  36.5273689738  21.3611907647  12.3442528031
O  34.0053600769  18.0615109651  18.0411225852
H  34.4526424483  17.9188684587  18.9418250902
H  4.3129095072  28.2125424410  21.6617911900
O  28.4615047648  1.2797973915  27.0557521010
H  29.0041904735  2.1578026292  27.1616673660
H  28.5269651381  1.0547551635  26.1149934442
O  37.2110206349  27.8273601161  23.7267429473
H  0.8188927502  27.6758052063  24.2027341728
H  33.5822030479  25.2230992184  17.7315513621
O  34.2866285399  24.9868113377  30.3309914727
H  35.0903440527  25.1113157513  29.7450484522
H  34.4644755369  24.1816621256  30.8385128438
O  18.4027632959  33.5664881082  12.6691829886
H  34.1308918358  34.8482881520  20.4882311172
H  19.0431246286  33.8985590761  12.0099307373
O  4.1269470210  31.0268164686  13.3827179072
H  3.4488177090  30.5872031073  13.9966075412
H  4.3144861969  31.8320121822  13.9317668637
O  28.8000939230  30.7825356118  33.1745763400
H  27.9387186475  30.4993088259  32.7347845691
H  28.7746788536  31.7459744439  32.9727959754
O  21.0902522490  2.9431709981  12.3734175612
H  20.6505118525  2.7591246434  13.1997325136
H  20.4318026627  3.3125266705  11.7026565531
O  34.6433307144  15.0276666782  17.2657530097
H  35.3906627940  15.6412122279  17.2505528657
H  26.6768116191  4.4637265231  19.6446751545
O  32.6648863473  29.9301102233  26.1590577401
H  33.0497994575  30.7015609682  26.6980674843
H  32.8421090265  29.0066451642  26.4992966550
O  15.1343963569  9.0088792055  18.2526498272
H  15.9713898881  9.0363377224  18.6585460378
H  15.3951359320  9.6552917813  17.5446401820
O  33.0046484303  33.3929578857  24.1791057016
H  32.7596114369  33.2055635089  25.1194547577
H  33.3077995690  32.5123028888  23.8497776908
O  25.6524485965  15.1836214811  24.5843333206
H  28.9762832601  27.6446754873  21.9755502688
H  26.0747905324  14.7078685214  25.3555194165
O  1.5992923993  18.2279982691  6.6363190281
H  2.4856364511  18.5901068271  6.7055507236
H  1.1169894585  18.6097964863  7.3857393986
O  32.9977968912  4.6610754389  23.3304876439
H  33.1174663374  5.5800507859  22.9958976692
H  32.8366667567  4.2867116581  22.4676406730
O  3.5177690356  32.3730339160  34.6454204148
H  3.8087883316  32.3613050731  35.5729386099
H  2.9057737799  33.1315833304  34.6466293474
O  25.5753397637  16.3774929089  19.6131141415
H  24.6705636330  16.2101413356  19.2583649115
H  25.3440444240  16.7565554460  20.5280739210
O  34.3274143000  25.7227267817  11.9962990748
H  33.6670204925  25.1433782911  11.5776200411
H  34.2704400154  25.6858880360  12.9653709576
O  24.8816610261  29.8774527668  10.8671501907
H  24.1700151051  29.3751455318  11.2190016771
H  25.2104806391  30.5298975725  11.5216362090
O  27.7170967264  36.6169016298  11.5208572808
H  28.4811540421  36.4868183132  12.1006667662
H  26.9505656866  36.7150188877  12.1368548114
O  24.4465179396  17.8694902726  9.7266920891
H  23.6224198923  17.3486467298  9.6074674839
H  24.2878371351  18.5213398092  9.0235722062
O  21.6763003458  27.9447470215  14.1663665058
H  22.3459553618  27.9566780441  14.8462072173
H  22.0095199477  28.1439521066  13.2643724855
O  28.8719849148  6.6853565057  13.6179621446
H  28.9495076677  7.4832827870  14.1295428612
H  28.2645588832  6.1297901519  14.1411831007
O  31.1574526896  28.9453126872  21.7842484035
H  31.9861429514  29.4190047271  22.1971590634
H  31.2539687230  29.2051621514  20.8648865426
O  24.2034814358  29.7439980994  21.7239689214
H  24.7406787953  30.5469772649  22.0354239536
H  23.9981093737  30.0529687847  20.8083437544
O  36.6930993591  26.0486800070  10.4323325907
H  0.1206700587  25.3869578999  10.6599658916
H  35.8918327721  25.5811943034  10.7537519274
O  28.7308676696  27.5005784762  14.2049090322
H  29.2392298373  27.1580552479  13.4598275871
H  28.9702113089  28.4514093100  14.1600041710
O  1.8422673455  31.2589009474  17.5604536188
H  2.4654856907  30.9089959771  18.2197892869
H  1.9351707862  32.1793935896  17.5334902166
O  36.6124299608  25.5949216235  29.0143098383
H  37.0482837851  26.3730979193  28.7085382677
H  36.6311083588  24.9859853684  28.2788931132
O  23.9951874933  35.2014962491  25.3757088587
H  23.4057085089  34.4129311026  25.3053068992
H  23.7309266033  35.4293299513  26.2574011565
O  26.8637997466  35.7600164068  28.1222846458
H  27.4212239624  36.5233650701  27.9102270911
H  26.6813988648  35.3313867445  27.2737107822
O  14.7856195601  25.3686301055  27.1488746686
H  15.3988652090  24.6501298967  26.9259755335
H  14.7678497755  25.8952150339  26.3194271585
O  28.4771696335  4.4704820761  20.2510646139
H  28.9589005245  4.5054523194  19.3948906255
H  28.8818415087  3.7291109686  20.6782134613
O  35.7393775901  20.5117518398  17.3057171208
H  35.2386179674  19.7070445630  17.3678379803
H  35.8746029993  20.6454270564  18.2311831409
O  26.1785626235  28.0889989284  15.2523851228
H  26.5363543592  27.6909080839  14.4674109713
H  26.3604312156  29.0282723983  14.9630936113
O  25.6761015561  8.6523932886  27.9266761809
H  26.4507915114  8.7061008430  27.3625108121
H  24.8608906788  8.8622332958  27.4769825303
O  35.6096452027  30.2522915598  6.6061961472
H  26.6863068360  35.4884981357  4.9660923915
H  7.8312600332  29.3184604841  25.8898426292
O  0.7302600536  24.6894794362  4.4173004253
H  0.2951423614  25.4737388461  4.0498942375
H  1.1965588595  25.0663288071  5.2080368401
O  35.3940071857  22.7864204547  21.5146088780
H  34.4452563828  22.8796711722  21.2115393470
H  35.8021223534  23.6809592163  21.2715388892
O  28.9041059350  1.3218585497  0.9632827091
H  17.7390573268  26.8310152638  28.6568375425
H  18.7492178365  26.0070825559  28.0441596702
O  29.7536413891  6.5628817171  4.9699730959
H  29.6845041464  5.5866650081  4.9437061694
H  34.9432109815  4.0221180698  18.6259396435
O  12.3374845747  37.2383217663  30.5250566607
H  12.6220521679  0.8507102151  30.8894446986
O  21.3339661690  33.5695752151  21.9700631475
H  20.5247361604  33.1468937442  22.1712491074
H  21.1898292490  33.4795719843  20.9504476327
O  34.8623360797  1.7709554388  1.8266957108
H  34.1017094700  2.3559008642  2.0007646634
H  35.0651381487  1.3394595031  2.6739413504
O  31.0534997584  1.0863571592  7.1745075012
H  31.5868826405  0.9680936273  7.9534383646
H  19.1314949673  3.0394624727  28.5617831661
O  27.5982904134  17.7173515485  29.8116477974
H  27.6387139129  16.7638206821  29.7590635059
H  26.6948958016  17.8745373992  29.3781556474
O  21.7947855209  0.2714113359  0.5906179026
H  21.9510819248  1.1993190403  0.4300334891
H  22.6392929870  36.9930772849  0.4856917350
O  28.1108315304  21.8189751223  6.1514338697
H  28.3326956360  21.0633148058  5.6137721672
H  28.2162638075  22.6034890010  5.5863679851
O  21.7712140193  5.5633609766  1.8187477009
H  10.3182462032  5.0340284040  28.0597031993
H  21.9176117644  6.2731034343  2.4982487244
O  29.2014627899  28.2582972909  31.7473705418
H  28.8367624353  27.5472406833  32.3138969695
H  29.1651820819  27.8988413739  30.7913402563
O  31.8895531546  31.6651389410  33.8514491593
H  31.3659138239  32.1988738334  34.4944211690
H  32.1400394007  32.2670773223  33.1550839074
O  4.3247048808  36.2472281872  35.0556689333
H  4.4609277446  35.9012772023  34.1039433495
H  5.1459739327  36.0132456596  35.5367025372
O  29.0053437170  21.1058106515  34.2130765915
H  29.3569946917  21.2115797630  33.2990102355
H  29.2455464478  21.9360524167  34.7231874326
O  29.9134669604  35.4532113157  2.5638485941
H  18.0806836829  4.0436624166  33.9382637480
H  29.7037519714  36.3124623126  2.9041267383
O  32.2191596963  29.1064672528  3.4663999722
H  33.1548996301  28.9022612033  3.5343314145
H  32.1427535415  29.9148773191  2.9801348327
O  34.7555487249  17.9982287366  20.5757595871
H  34.0582716296  17.9386591386  21.3130718593
H  35.2574240872  17.1705339220  20.8105811017
O  13.9483588957  33.4299658223  29.8275394347
H  14.2771720743  32.5946172266  29.5368680783
H  34.7061431347  26.4773203516  31.4968684599
O  29.0921221725  3.9931837931  1.3965184363
H  29.3514081270  4.6314693520  0.7490189106
H  29.0308194742  3.0588650295  1.1112434096
O  33.2821119858  2.2650136339  29.9704999796
H  32.4276016053  1.8683537297  30.1729577393
H  33.0885169509  2.7255837088  29.1388397706
O  31.6437775614  25.3219454614  29.4305499928
H  31.2467639579  25.8941410690  30.0607855695
H  32.5483728770  25.0776897769  29.7925935395
O  22.9708440079  23.1743623128  34.4767797991
H  22.8419543009  24.0393534586  34.9733684468
H  6.6969652590  29.0085955981  36.7695815017
O  20.2390078405  4.1752901116  27.9073223790
H  19.9948307938  5.0857839773  28.0261882748
H  20.5343319987  4.1182337330  26.9607667258
O  30.2453957306  0.2646161110  29.0807701344
H  29.5208663620  0.2307869193  28.4028895266
H  36.7945338447  26.9329751682  23.6216314791
O  4.1937218087  32.7758126150  0.1039709313
H  3.7828622778  33.0315312249  0.9700609965
H  5.0776301344  32.4285929423  0.2605407708
O  34.6971759582  35.1277396153  21.2460501730
H  35.0538706473  0.8604049301  7.5382203931
H  35.4888637542  34.7232019679  21.0144613885
O  3.3073748594  29.1254781114  18.7804655212
H  3.3987067177  28.5823530986  19.5754131798
H  4.1051978476  28.9215047382  18.2692472948
O  1.4818789973  22.2154804426  24.9026985800
H  1.6896057727  21.8151721416  24.0296709857
H  2.1432732849  22.8999392902  25.0697627116
O  16.4357680436  0.4798590742  31.6089141617
H  16.8722169107  0.1930186332  32.4702481766
H  16.6518914588  1.5023285150  31.5086913031
O  27.6070372186  26.2441546145  27.0181631759
H  27.5734933485  25.5113342027  26.4102110593
H  21.2411565705  18.7330649325  35.5134574930
O  26.6245830593  23.6403400491  20.0384403458
H  26.3438939390  24.5210446492  19.6875856117
H  26.8296247937  23.1212400693  19.2812077114
O  36.5644912799  26.8184984130  3.2347698046
H  36.7363180545  26.4422713772  2.3638117073
H  0.0399193412  27.4593066700  3.1917037641
O  29.0301550189  1.8398117787  35.4321801402
H  4.2868175597  27.5045784892  1.6439143981
H  28.5759140177  2.6861247477  35.2070923306
O  16.1309542588  6.9592179823  24.8477320355
H  16.8171081086  7.5993403866  24.6919737294
H  16.4489167686  6.0729866104  25.1505840143
O  0.3468469216  34.3332108776  1.0136477243
H  37.1498569577  33.5308224759  1.1588949815
H  0.8370670256  34.2174132128  0.1772608008
O  6.2362700131  1.0435101630  11.2647098923
H  6.0559331488  0.4235582018  11.9874597830
H  6.5163525906  0.5181469291  10.5067758032
O  1.5972711310  25.3745626265  6.9279096634
H  2.4213964546  25.7171595366  7.4255468618
H  0.9193004021  25.9494851307  7.3189028559
O  29.0339567589  37.0325831743  32.9913428892
H  28.2739246048  0.0845319014  32.3890879302
H  29.6408066861  36.4208460325  32.5580920265
O  0.4631774244  13.8398675664  23.9125103385
H  0.7940853117  13.7206736481  24.7929093196
H  37.0903739004  13.0866098482  23.7767397517
O  6.0902059833  35.0402687692  29.0909658656
H  5.3276866856  35.6000344148  28.7601033041
H  6.8449781485  35.5170125744  28.6591410825
O  1.2755708348  23.7234776665  11.0599999613
H  1.2870144659  24.0269237080  12.0033406953
H  0.5740684242  23.0726839732  10.9936121906
O  16.8502631795  32.4836709023  24.7478436480
H  16.7219774965  33.2987815053  25.2813338985
H  16.1534235555  32.6593901438  24.0484080580
O  26.1789884374  27.8202317879  35.3826079309
H  25.4260863406  27.2053630650  35.4172761258
H  25.7280442502  28.6528226981  35.0777159784
O  33.5132983684  3.6503725728  3.5651739476
H  34.5149798775  3.7361303421  3.5152244112
H  33.1995233346  4.5633145296  3.5602433707
O  27.5096409754  8.2826204282  31.0905235376
H  26.7251629595  8.6249117261  30.6141921153
H  27.5293559085  7.4175288959  30.7615169179
O  2.3020134122  35.0751148770  27.5089232582
H  2.0786015159  35.4828822600  26.6721379556
H  2.7816601770  34.2157983133  27.3281545899
O  28.1930108276  21.7143235926  26.8171701825
H  29.1594711817  21.6808162724  26.8743521231
H  27.9109552065  21.0144535879  26.1765809648
O  35.1753633816  36.0801563631  1.1499186244
H  35.9126621429  35.5022442730  0.9403343857
H  34.9031785295  35.7746766453  2.0215228321
O  30.6936093724  22.4751429160  22.5387212635
H  30.4926226953  21.5163868842  22.3421061345
H  29.7252973603  22.8063469752  22.5750011945
O  3.3474651289  28.4906107033  36.4382954041
H  2.5792852720  28.2655996484  36.9940674760
H  3.2806805653  27.7959746398  35.6665100051
O  25.9017735244  16.0676158090  1.9182341671
H  25.8981961456  17.0485492448  1.7340380888
H  25.9278821146  15.6387325193  1.0115384586
O  19.5514588372  6.8775311830  28.0961692811
H  19.6014745314  7.5029648937  27.2842072298
H  18.5949603745  6.5292473179  28.0020869563
O  29.0218011611  30.4304920418  29.4450594406
H  28.6886950286  31.0372360489  28.7558782006
H  28.3710727647  30.2916722156  30.1580667379
O  32.2520667276  1.5682070097  4.5640273859
H  32.6660764525  2.4750894400  4.4216952783
H  32.2235978299  1.3359899905  5.5197017239
O  34.8719003966  29.6922069462  36.9825921309
H  35.1670588418  30.3730453309  0.3639132864
H  35.0484783412  30.0058516419  36.0501502183
O  22.4225135095  1.1360015794  31.2737091304
H  22.7933240858  0.2386862752  31.3495803199
H  22.1674834454  1.3843096325  32.1880796217
O  33.2214165405  13.5075802904  2.4487627239
H  34.0005545496  14.0164761117  2.3098139191
H  33.3834646257  13.1397420613  3.3416739122
O  21.8268672444  3.2926592604  20.9173115812
H  22.4095243025  3.6777536862  21.5602810334
H  22.3207805189  3.0784914694  20.0582667648
O  30.3848479086  28.0759954859  34.5041249117
H  7.7455012913  29.6811889743  24.4469391958
H  21.4403032201  2.8998511046  3.4783884460
O  26.4675011050  8.4602991051  36.8668131692
H  26.2833757546  9.3482517810  36.6794435451
H  25.6122339724  7.9657873893  36.9579971672
O  33.5193927790  30.3908762345  15.7909815859
H  32.6418530063  30.7481918924  15.6421696744
H  33.8611022087  30.4595029102  14.9127106633
