4748
Lattice="37.2600 0.0 0.0 0.0 37.2600 0.0 0.0 0.0 37.2600" Properties=species:S:1:pos:R:3 pbc="T T T" Comment="RPA C-NNP cube3, final production frame: i =   160000, time =    80000.000, E =    -33032.5700381155"
Na  21.0696450357  31.0978870877  14.6113727282
Cl  26.6655346364  14.9530861704  19.0606107577
Na  15.1913775619  22.8747608597  7.1086165278
Cl  32.7850816957  5.0942376129  28.8840785394
Na  28.7555712738  11.9069506905  16.2181450273
Cl  27.6921826724  6.0552902599  20.5663779408
Na  35.7931196812  35.2389658476  9.6936458210
Cl  14.1553155328  29.2194719365  17.7020269213
Na  11.3380688789  28.4458801289  21.0722797616
Cl  1.2000402607  33.1810477246  13.1875800336
Na  31.8478136386  16.4005852273  25.4698500397
Cl  24.4063626583  15.5843238050  22.6756085734
Na  5.0147997082  32.2138992222  27.6853193615
Cl  35.5744067383  4.4157772376  4.6195016944
Na  15.8359547463  34.7338960553  34.9915856758
Cl  9.6836988229  15.5175064092  4.7482409465
Na  21.7372542000  14.4879778185  3.2788331877
Cl  23.1599044021  31.1471567173  8.8631155941
Na  23.5326192071  19.1302435901  19.9555493548
Cl  12.7387904944  14.5102974029  27.9904711212
Na  32.6112884415  33.9245357461  22.4784003456
Cl  25.2298800442  26.5623991366  2.1217942406
Na  8.1463596234  30.2881718839  27.1318240151
Cl  35.0065119420  11.9863078662  20.9972547810
Na  0.0548540962  18.2536950314  36.0035058367
Cl  0.3555224707  11.3942339589  31.6118463871
Na  7.5220489465  13.4710051791  19.4239874168
Cl  3.1580060183  24.3263138188  31.6672564145
Na  27.0647068908  1.0906985421  4.2218379884
Cl  7.9631636378  19.0427876475  35.0126780417
Na  30.7251418936  19.3317713564  4.0494278596
Cl  33.5506630196  8.4660000247  24.5562028624
Na  13.8651450125  6.6162531268  22.2966137792
Cl  31.1054608908  11.2944396946  9.0056963089
Na  30.6375319259  35.3368706725  24.4180168525
Cl  13.0088363051  0.3766792743  33.0284605345
Na  8.2225318114  23.9149795278  31.2120022198
Cl  10.6447312293  25.7831103151  27.5223934361
Na  7.0378574538  19.2771546233  8.7440019047
Cl  16.5211608006  17.3585672812  17.0946074244
Na  5.3341727180  5.4425603155  15.9681136754
Cl  22.0313199102  30.2819620786  17.1313839601
Na  27.0817580687  12.1482062049  26.6526257240
Cl  25.3445720341  5.9300729440  3.1683483925
Na  18.6852488091  4.7215469134  15.9247495460
Cl  15.9816538540  33.3322960236  31.0268686876
Na  2.7434073583  1.2595974255  12.9988995566
Cl  1.2278236668  29.8444748155  27.9478341026
Na  3.5894984488  0.5966855611  21.9349965466
Cl  5.7495650020  30.3253119170  23.2608921203
Na  1.9549386425  26.9278067955  28.1134386568
Cl  19.5747854295  25.3159884366  10.1615939101
Na  25.8749975528  34.3189515846  5.2738762393
Cl  17.6766065647  32.0055729640  0.8569735141
Na  28.2924476212  17.2105000844  25.0433396779
Cl  15.4631060528  16.3710036747  22.1860977651
Na  3.1133673709  14.5364259018  11.1362902090
Cl  15.2334889171  33.3576931880  12.2765387339
Na  28.6789254651  10.6050784603  36.4719904667
Cl  25.2496924985  14.9824942744  11.6334525996
Na  34.6292175812  6.2069179766  9.1822501446
Cl  30.6164773554  0.5383120992  25.8488293266
Na  27.2483365854  8.6059733319  15.8725567055
Cl  8.6742062277  28.9029272702  29.5609576392
Na  0.8729588835  8.8182579068  22.1119088395
Cl  0.1159476014  14.6170518485  4.7745295229
Na  34.7075697641  25.1020283674  18.5511680742
Cl  34.7127597458  24.6464963377  31.7117054326
Na  12.9956359848  20.0377152350  6.4770715035
Cl  31.8268847697  18.5401598869  8.4629919481
Na  21.5403142474  31.0158740387  23.5968659059
Cl  37.1620551406  36.0772843851  16.4191150923
Na  26.8745472366  32.4193202202  12.1956902521
Cl  30.5403569928  26.5890560891  34.2189722932
Na  7.3066191047  31.1027811691  15.5718726641
Cl  34.0525500972  20.4514804645  35.4048038257
Na  10.9784126782  36.3759814895  31.2981529569
Cl  36.2375755691  26.9412879628  15.0376981091
Na  34.6765959113  33.8949326406  33.8073342789
Cl  10.4559531501  6.9684759735  22.2730248135
Na  36.7577960102  11.1922018040  7.3866910290
Cl  29.4115949300  9.5184472423  17.0567464488
Na  27.8405197461  30.0026730515  6.1577249207
Cl  6.9741894945  11.3588698885  17.7236692137
Na  31.1123759230  4.4329260129  24.8116691790
Cl  30.5328974725  32.1513190592  9.1681285714
Na  24.7357049595  15.7183016222  25.2362451726
Cl  36.9499328452  10.7163994788  10.6570197908
Na  4.9716569095  9.3634586361  17.2286231258
Cl  18.4137306878  12.1385790421  30.6530675650
Na  14.7807311860  36.4703402569  15.2955759018
Cl  25.8205962942  28.0864824903  13.4136491788
Na  2.0300769243  1.5306205324  2.0826528707
Cl  1.7470735654  7.1131145567  10.4227195265
Na  16.4747310396  21.9469979905  15.6016567052
Cl  20.9457084535  1.1481128071  34.7962698830
Na  36.2941377263  28.2035035150  26.8119200682
Cl  11.7170131427  25.6356936016  17.9434936440
Na  9.9582221499  32.3562345615  2.7329480953
Cl  34.2357534424  29.9585368015  26.0612503373
Na  13.9008690638  16.9316385759  33.4209717393
Cl  36.0461449039  1.8020969108  24.9480262575
Na  26.5273650496  14.9607921430  28.2105399434
Cl  7.9077043754  33.2689674715  32.7228729241
Na  20.6172466209  29.8476821625  33.7585072597
Cl  23.5751742184  7.4327285083  18.9989567560
Na  27.2980990007  4.0218994204  6.6048924235
Cl  0.8767639435  10.7822814506  14.6022832929
Na  29.1551881768  31.1888221563  30.3814008394
Cl  31.7868417778  7.5418467682  33.4333924473
Na  31.4549275894  26.0151185599  15.7708976347
Cl  12.1627300586  31.9478111426  6.7314114121
Na  21.1816555260  23.8481294018  5.4912100671
Cl  20.8982352155  7.7305128151  6.9347980934
Na  31.3145629042  33.2264467913  14.4307246467
Cl  30.3773289865  0.2764421767  17.4700874054
Na  35.7293931154  31.4912376787  23.4586604177
Cl  15.5485413461  5.4852060693  20.3277884079
Na  15.8559122995  21.7281509209  11.3612027541
Cl  2.3982531774  10.9625225603  7.1363974291
Na  36.4058159029  9.7400766283  4.2167781973
Cl  12.4593174440  23.1972512393  8.2080701196
Na  21.4935542290  19.6430674902  16.9992855875
Cl  20.2175222473  17.0290756107  8.2651345588
Na  31.3676194294  9.2624700838  0.6796648878
Cl  5.0290890922  13.2325877615  13.4696249780
Na  1.1723975395  1.0560232402  28.5463790699
Cl  27.4052194995  14.5159244123  25.4754703238
Na  2.1592500915  20.9554071228  35.6763627900
Cl  3.7348184243  20.4296045427  11.7902909680
Na  37.1328194075  2.2043504382  32.3101052739
Cl  26.2009909223  21.4974334169  11.4817650949
Na  4.6875068900  23.1674436684  12.8283201193
Cl  33.2173897926  9.4979498524  5.1813510669
Na  36.1415132833  15.4957983207  28.9911637197
Cl  7.8587015729  35.2036104119  15.7289761991
Na  30.6759166732  27.6802054195  6.1938293801
Cl  12.4703762016  18.5337173761  0.7790914444
Na  32.5650240152  11.8136754231  11.2198827025
Cl  31.8716006863  29.4969585744  17.0935879865
Na  36.8169120702  34.5696501401  25.9520298188
Cl  19.0305808002  21.0478621725  26.3137486160
Na  2.3461444990  11.3245059543  9.8626792301
Cl  7.9125416667  31.7067267532  19.9426837598
Na  10.0879521376  33.2520039047  36.5231738256
Cl  2.1006118597  7.3484003981  20.1015722091
Na  16.3901023335  11.3658522722  26.9189531799
Cl  32.5276073704  6.5136490060  13.8801787983
Na  21.8739278477  26.1004278386  8.6558450632
Cl  22.3375894677  33.8328314934  1.6706305360
Na  14.4085104164  35.1643011079  31.8670029985
Cl  15.2247796256  23.1022417702  30.0449957662
Na  17.1983144293  5.9924498488  22.4117722538
Cl  30.3211928321  30.8346187501  24.5817073274
Na  36.7967480302  6.3660520304  30.8331358511
Cl  35.3467491919  34.3047589853  23.7335696340
Na  25.6624999132  30.6701228389  29.6021061944
Cl  29.4992695161  36.0794737853  7.2659578234
Na  14.4916299893  1.9568658779  31.4418566362
Cl  30.9640397575  23.1501417619  16.3485894004
Na  29.0535929716  17.4639010868  14.0662525488
Cl  17.7310529155  26.2885901495  4.8352590004
Na  22.4570529678  25.8854307790  2.9802274063
Cl  17.6069618567  9.5985236075  25.0504151565
Na  9.9311615891  19.4725985073  7.0082448209
Cl  12.0899313180  1.3669436789  26.4771036624
Na  22.9854429286  35.1169112380  6.2387452976
Cl  26.5656501483  35.1031812879  32.4826342884
Na  9.9660714557  16.2058737936  21.8406917279
Cl  22.9670490713  33.6179854751  29.5271760674
Na  6.8567986331  14.6856304554  36.7619957685
Cl  26.1358662550  11.1541641772  16.4049812717
Na  20.1323797845  27.8538433468  11.1831525532
Cl  6.2289196107  18.4759157068  3.7810141481
Na  4.9362258481  22.9810182918  36.2897610385
Cl  30.1440669620  11.1487507317  34.3137902973
Na  26.6129401036  10.6321678091  22.6846591863
Cl  7.1523542716  28.8140350379  4.7998497111
Na  26.5120040763  3.5939264770  19.9408751745
Cl  33.8913070205  21.9463737026  28.2172906731
Na  27.1613841533  10.0112861256  18.8664663231
Cl  28.6094321167  16.7051456882  28.9182771260
Na  3.7487693529  2.0537380866  16.0504703266
Cl  29.6769103239  27.4184887568  10.8439207982
Na  29.1553541614  4.2848730516  22.0772110104
Cl  21.7434911316  36.8282255865  14.4470990135
Na  14.3423392435  7.8779678060  19.0103209510
Cl  3.4135523141  2.9557101279  30.6626413011
Na  18.9247071091  33.7233954784  33.7555193910
Cl  30.1318390883  3.7355640501  2.6584993035
Na  2.7353474060  35.0965149443  27.0339701849
Cl  5.3991528351  35.1496094464  36.1605337564
Na  21.3027875423  33.0602365319  20.8752897352
Cl  13.2412583272  31.6024540201  35.0623865702
Na  5.3869973697  26.3102980690  27.3367795226
Cl  1.4830639956  36.2916863893  5.3926402106
Na  7.7351502404  10.9145146654  21.7813390898
Cl  3.1286355783  18.0795198237  29.2288635995
Na  31.3504426969  23.6493286419  13.2430544628
Cl  2.3330409136  32.8187224956  30.4820402932
Na  12.0480607646  19.4866359752  32.5469371089
Cl  23.9796934104  35.5375945511  23.5123599939
Na  24.9577553532  4.6005808521  35.5059222378
Cl  5.6346214479  4.5759020562  19.6607216193
Na  33.7932572320  34.1086855382  11.9133337344
Cl  16.7836871228  1.0258303005  25.2789527428
Na  11.1770510244  31.0095796985  33.8515156679
Cl  11.4812029159  18.7930865092  11.3926516494
Na  29.8988244755  14.9652794453  12.2381876541
Cl  28.7313640755  37.2015396996  36.7976515005
Na  15.1492815548  4.1840529570  28.9719861779
Cl  24.2446012318  8.8359563588  23.6114718822
Na  34.4942169025  4.2154302314  25.3043444424
Cl  10.1109851808  1.5029691106  22.0080201977
Na  17.1439427830  4.8273454625  25.8078434660
Cl  35.1631120571  24.8784045140  23.1893586049
Na  9.1874076908  29.6536840019  18.2841310216
Cl  30.6897670629  13.1817302717  3.1680447602
H  32.2817820993  33.9445910200  5.7725788594
H  31.3218864417  35.0044219341  6.5648619484
H  24.2064559065  6.8665589803  22.4902188418
O  8.0555462767  21.0135678102  7.2710642173
H  8.1937315435  21.8626861837  7.6995135326
H  7.5807171885  21.1552531230  6.4513651886
O  16.9946408679  30.9608335112  13.3894788341
H  16.7362405520  31.8224147043  12.8960233457
H  3.0151507651  9.4533914021  0.0557812129
O  2.0014520245  2.9988470609  33.3854433264
H  2.4558713170  3.1979596981  32.5048809890
H  2.4746786012  2.1835717084  33.6202769484
O  1.3105637674  3.8507653499  9.5061299263
H  1.3456524770  4.5662878088  10.1079875453
H  1.6930177909  4.2695580289  8.7210846873
O  7.5213381032  14.4847950650  10.9999087149
H  6.5763633909  14.6359360296  11.1315021049
H  0.8420559028  16.8628391209  1.1223585425
O  13.2982983775  34.5000680511  14.5562605762
H  13.8081076114  34.0090351543  13.8943965793
H  12.3630445040  34.4635705528  14.2587721384
O  15.5508101150  13.6933725111  35.2289195428
H  15.5630759687  13.0821605352  35.9813161877
H  14.5662042449  13.8930037279  35.0532226602
O  31.2766936070  30.1556746133  11.5436350197
H  30.6939088821  29.3472387200  11.4507227086
H  30.9448367196  30.7930493915  10.8265212535
O  0.7804920850  13.7401525389  28.9860423016
H  7.2842269927  8.2167406239  3.9262295351
H  1.6107412346  14.1035687167  29.1908802706
O  31.5004491225  2.5602431990  6.3298557887
H  30.9385038142  2.0375860777  5.7731258228
H  32.3669362412  2.5523870887  5.9057510105
O  24.0408787394  0.1135123910  35.5667076111
H  23.1053808597  0.1940604001  35.4586413677
H  24.1671293156  36.6739924568  34.8492171193
O  5.1721776934  14.7792598764  19.0237500499
H  4.4956799540  14.7470325965  19.7027888772
H  5.1131836455  15.7596621944  18.9895315729
O  1.2206672061  3.6236756904  5.0134214649
H  0.2889162723  3.6155273989  4.7909989698
H  1.4380721102  4.5812359395  4.9600839575
O  16.2865171721  17.7065030535  10.4221934675
H  14.3850062496  13.1027452754  19.7942843378
H  16.8287327142  17.3725351600  11.2098868876
O  5.1696477171  10.9200494431  10.5638736530
H  5.3562535766  10.1607780663  9.9868810734
H  5.1407419881  10.6094287766  11.4998054841
O  35.8363262794  3.4819839431  33.7740864477
H  34.9888866276  3.1832831716  34.0463141433
H  36.2721601866  3.6884247315  34.5769268124
O  30.0101391748  3.6643834513  35.6222221089
H  30.8431163789  3.9215681737  35.1621972740
H  31.4206919424  6.5199872437  0.0272095234
O  2.7408790219  17.9169046233  5.2014232197
H  2.7415379172  18.5599137383  5.9407397259
H  3.6569299664  17.5812734596  5.2819351450
O  10.5271661338  11.1210261552  13.3797560859
H  9.8250702769  11.3140771947  14.0278405232
H  10.0944689333  11.2597067166  12.5021087528
O  33.9325130539  28.1966141961  12.0925195709
H  34.1550153970  27.2955434038  12.0939228522
H  33.7716559914  28.3121945142  11.1013275434
O  5.9148755456  4.3150168832  8.9956555545
H  5.4648858535  4.5280253927  9.8613546975
H  9.6764286758  32.3406192172  16.9683094211
O  3.2106197315  6.7882337984  15.8188279448
H  2.8461266653  7.4313300314  16.4385858729
H  3.1619653664  7.1803452942  14.9584894648
O  6.5821405701  2.6783840783  21.8641552428
H  7.4177692046  2.8741070287  22.3007644846
H  12.7470897230  9.0187541861  34.7650035264
O  15.5221399334  28.8688645368  11.9894321922
H  16.3633045816  28.7929732459  11.4329087453
H  14.8652512575  29.0728572252  11.3160363068
O  34.6388716890  5.0903851143  31.4039657443
H  36.6127757381  14.0687465293  16.4209579413
H  33.8597746084  5.0461425417  30.8731946312
O  2.8816343809  6.4214012795  34.1513624159
H  3.3835911866  6.3936707966  33.2828252226
H  3.3381935882  7.1950358323  34.5194031072
O  4.1028199475  16.7279425283  2.1714182813
H  3.3483174581  17.3073296218  2.0887402041
H  4.7523284193  17.1258905101  2.7459336240
O  31.9142425428  3.9393762354  33.8267916435
H  32.4728812282  4.7503394957  33.8949893871
H  31.5653240517  3.9316979607  32.9230619259
O  6.6015615682  9.9705934532  13.0841675402
H  5.8192777282  9.8007513626  13.6744737534
H  32.8239345585  30.2984185796  33.9514425748
O  3.1371337655  4.6434513095  7.3918636084
H  3.9525804566  4.0952769377  7.2257484225
H  2.9625206639  4.9303140007  6.4855362429
O  8.3251939641  13.0344228940  8.6317159461
H  8.6265891253  12.6709718055  7.7785166332
H  8.9640516483  13.7554031504  8.6118254419
O  37.0297305517  7.9563004554  3.0832675637
H  0.7546232357  36.3716248974  11.0766986294
H  0.0272131788  7.6343894380  2.1326435356
O  0.7491325347  36.5260589061  2.5649040401
H  0.8859446635  36.6627312484  3.5685218315
H  1.1664621336  35.6425062427  2.4265460127
O  13.6713899173  35.2691610968  4.6551671197
H  13.4624603593  34.4713365321  4.1085152116
H  12.8389031907  35.3492894375  5.1258329149
O  1.6401814003  26.8010300310  7.5152210300
H  1.8850415252  26.8345993192  6.5610782395
H  1.2951997060  27.6319884668  7.7803435536
O  4.4982704028  0.6383531585  14.0909110701
H  5.4205960843  0.8543358258  14.0384251473
H  4.3503813856  36.9756199886  14.2970514921
O  10.6299282761  2.3397286781  2.7729185400
H  11.1119904022  2.0175615257  2.0074521457
H  10.9738194705  3.2061311781  2.9070451760
O  15.3776286492  36.0484807365  10.8621456849
H  15.4454676998  35.7269388534  9.9349629201
H  15.3724524451  35.2426001497  11.3156502805
O  19.2523295862  36.6079435036  6.5318814947
H  18.4115115247  36.8861888759  6.9198980399
H  19.4472866475  0.0249920870  5.8366709194
O  1.7537272711  3.9970411063  2.2074409865
H  2.4224683493  4.5201570866  1.6900540583
H  1.3052052368  4.5483198270  2.8313987605
O  10.9900026249  0.4274381142  13.0454905819
H  11.9472429279  0.4722639061  13.0997956840
H  10.8551145131  36.8541118486  13.5422721024
O  4.0879964337  2.1996889167  1.1829384728
H  4.2721230361  3.1631645181  1.1743300592
H  4.3754334562  1.8348510014  0.3137187285
O  17.1959696442  7.7608202033  0.0605575009
H  16.5264482565  8.0192225429  0.6938332820
H  17.7018400049  8.5699218415  0.0642207098
O  12.3613300817  33.6694459094  37.1382316309
H  12.9959871455  33.0489142823  36.6656013202
H  12.7568920115  34.5634514959  37.2053495607
O  17.0887886986  34.1668914692  8.5125148433
H  17.7323201395  33.4131980932  8.2474324346
H  16.3533677561  34.0330116941  7.9193862981
O  4.4489340404  10.0125946496  14.7702739216
H  3.5288294487  9.8198578148  14.8651298735
H  4.4393042189  10.9734316211  14.6853910645
O  17.6162769646  23.3677291503  3.6162803076
H  17.4698827690  24.3389634725  3.8608669933
H  18.4652369900  23.2852142320  3.1201701933
O  11.4318244617  14.4069024591  21.3115736601
H  12.0146703482  14.4853636345  20.5428799627
H  12.0746404007  14.0851091042  22.0130717926
O  13.1754839405  8.2845622529  20.9610917281
H  13.5479420559  9.0539159324  21.4208178467
H  12.1961958182  8.3899139858  21.1241750793
O  3.8240251055  0.6357890334  8.5892114054
H  4.0785230177  37.0074902159  8.3381672294
H  2.9560623044  0.7654445004  8.2460823112
O  8.9116003657  4.8572632414  16.3396611016
H  8.7286803348  4.9375898321  17.3076303298
H  8.5327782054  5.6627249866  15.9302990026
O  15.5229179598  35.8170065818  2.4151155301
H  14.9827011797  35.6758867033  3.1896045647
H  16.2345182268  36.4411160795  2.7353765333
O  7.5200936818  2.0884195074  2.0749351337
H  8.2581536185  1.8976214916  2.6155643456
H  6.8093183089  2.1996989553  2.7607416619
H  29.4597051508  9.7569246287  6.3491740868
H  28.2961279477  21.8066165938  19.3932773512
O  3.0311387142  21.4753864109  33.4422895881
H  2.7480359043  22.3260964411  33.1784604250
H  2.5548267780  20.7548725769  32.9724523985
O  16.3953138583  4.2173893853  15.9628687538
H  16.0264417207  3.9771658275  15.0884244803
H  16.1384157250  3.4073046302  16.4146611875
O  6.6739061288  7.6260587538  15.8154903980
O  1.1264748402  19.1146526792  18.1149130843
H  0.9103652913  19.3035951933  17.1231394062
O  8.5823268124  15.5067497627  20.2651887810
H  7.8045339955  16.1038205438  20.2692678378
H  9.0989102409  15.6871273055  19.4481367040
O  5.6473854105  35.3644188020  12.0643558775
H  6.6428008334  35.1434363208  11.9335506596
O  17.7512050212  36.0962340351  21.7277702928
H  18.2191818375  36.1542826723  22.6115530058
H  17.3284275366  36.9885874279  21.5701712502
O  13.9912290501  17.3338078399  28.8829279281
H  13.5248411087  16.4938465046  28.5587680066
H  14.8415844070  17.3301723735  28.4011032476
O  13.0861158761  2.8119837406  29.3754564805
H  12.4003508230  3.4922469177  29.6040310211
O  9.8133592473  1.9378085191  16.9329163935
H  9.7353647050  1.0057049765  17.1564082356
H  10.0821043273  2.2943316034  17.8330606848
O  16.5309684124  1.1581709848  14.7718352471
H  16.7646474058  1.3676120969  13.8849777832
H  17.2784629660  0.6307932130  15.1299660536
O  4.5918685774  0.0459140396  17.0545922833
H  5.1866926797  36.7409515860  16.4722108411
H  3.7757192742  36.8035366240  17.2945701529
O  36.2360513788  0.6058706242  9.1844617068
H  36.9578597819  1.0401126891  8.6544136284
O  3.4361320677  7.0809608633  22.8551995100
H  3.2355185858  7.1974944984  21.8890317660
H  4.3473481388  7.4361911149  22.9034791229
O  10.9007775929  22.0207183120  22.1831880949
H  10.7823501041  22.7235423647  22.8495477255
H  11.2758801438  21.2245806139  22.6411164600
O  8.6211478511  31.9407229703  25.7208199564
H  9.3239148919  32.1627177267  25.0007578792
H  8.4916332578  32.7992348742  26.0763120630
O  12.6619793719  4.4434327725  21.6027041958
H  11.8062073431  4.8817095066  21.7935188657
H  12.5638205718  3.5954967137  21.9330041311
O  13.9782174217  0.5572809531  13.0745288508
H  13.9016056999  15.0935729021  18.7626056042
H  14.5171275275  0.0457401794  12.4254953304
O  10.9008220661  6.8608849695  18.2412375081
H  10.5301765674  6.2603505465  18.8396564887
H  11.3865543333  6.3345294634  17.5765991353
O  13.5909067926  11.3004472499  31.8183248877
H  14.4859720328  11.4469394051  32.0927837242
H  13.3366177173  12.0986000349  31.3834679330
O  31.4164613900  5.9083083894  36.5143158388
H  31.0676253398  6.4282501444  35.7864055395
H  4.4006437459  12.3907167126  28.1141711791
O  17.5336499261  16.7815107434  12.7170151486
H  18.4272183920  16.6717267631  12.4313821149
H  17.1629400049  15.8558642098  12.6888140195
O  2.4253561762  12.2312751161  12.2167571634
H  3.2058156072  12.4129512782  12.7249756711
H  1.8677996161  11.6540631267  12.7653785822
O  8.5845973826  20.2894479803  26.9459901314
H  9.3689856225  20.7648517990  27.4551111771
H  8.9705333816  19.3899937271  27.0083832935
O  5.2539213074  10.0389924752  20.1121024722
H  4.9267441334  9.1074835190  19.9610099127
H  15.1371207793  3.2815682110  21.9175654074
O  30.2969640096  12.7220800592  23.5144026476
H  30.2082306055  12.2056419291  24.3210754204
H  29.4847332437  12.4715666744  23.0081911607
O  12.8781739552  3.5570650601  18.9315231390
H  13.5180007197  2.9425114213  18.4765691669
H  6.1835435668  3.5109021938  21.4948238950
O  6.0700289382  10.5139132943  23.5484226273
H  5.1109406333  10.7317395973  23.4985876409
H  6.1781397028  9.5069544042  23.5879199736
O  36.1341496811  13.8758168844  15.5753718880
H  28.2894990905  9.9672734697  1.5889489981
H  36.5521741217  13.0852205748  15.1942801673
O  31.1503608262  2.6172029449  13.0729799355
H  31.7336389341  2.6475011560  13.8701105613
H  30.4314465609  3.2102005836  13.3222424410
O  10.0242970819  13.7814582417  25.9767403911
H  9.8611710886  14.6901114526  25.5620875812
H  10.9015392775  13.9198302098  26.3856333990
O  15.3501263231  6.8743887503  35.3042958902
H  15.8689931471  7.3411261317  35.9783685343
H  29.8647250308  0.3913514459  15.0883802177
O  8.4721811680  17.3143523667  32.1362778603
H  7.5956262488  16.8342772419  32.1048590846
H  8.4504128489  17.7431966263  32.9845742629
O  0.5587594846  11.3911527584  18.5707872409
H  37.1716059479  10.9962073373  17.9921741381
H  0.3466513120  11.0880537419  19.4669707512
O  13.0451600287  16.6898558303  25.7530585157
H  13.0604964545  15.8087834249  26.2539468190
H  13.9605535254  16.8838560605  25.4579623568
O  2.1618157573  4.4285031847  25.7870367051
H  5.3933071648  8.4940362090  34.0489544080
H  2.9923974239  4.1153374858  26.1777978121
O  31.3296095363  1.2809817114  0.8058904360
H  30.8374646937  2.0182494225  1.1777174303
H  30.6308201789  0.6693714226  0.4651648010
O  10.4036937405  34.9620560049  13.5069980846
H  9.6837686774  34.8732102159  14.1824004317
H  9.8347710698  34.7884162232  12.7418276880
O  32.7176658297  5.8018657335  25.6268235484
H  32.6755482748  5.8699943127  26.5610477753
H  32.7806084394  6.7096648065  25.2305353966
O  9.2493918629  35.1477575002  30.5448622189
H  9.2921589978  34.2118838482  30.3983213085
H  8.3326935688  35.2539535322  30.1737664079
O  24.0193188541  6.3199085767  7.7990973350
H  24.3689856554  6.9385851222  8.4114360927
H  23.1002657619  6.6143729471  7.5525422287
O  7.9720111944  4.0671932903  13.2688221522
H  8.4713240473  4.8665879213  13.4454600074
H  8.7534094269  3.5367935545  13.4826395826
O  4.9838616513  18.2791525283  16.6210189327
H  4.3037533180  18.3621472182  17.3323848385
H  5.4947496751  17.5315505373  16.9125177030
O  9.9716384864  5.6368746115  32.8301581287
H  9.2956788795  5.2453223411  32.2802083493
H  9.5655463305  6.2405281537  33.4220793815
O  34.0161580856  9.9245241821  10.5339798030
H  34.9098899466  10.1796595545  10.8361490301
H  33.7904783094  9.0041788709  10.7966985404
O  2.3946936869  9.7400483144  17.2023007116
H  1.7940684634  10.0846122644  16.5459600155
H  2.1224541517  10.1694651419  17.9986627644
O  4.4494054253  13.6471955410  22.5531386211
H  4.0595864453  12.9279224631  23.0784370828
H  3.8242673837  13.9969625105  21.9052412835
O  2.0083917534  9.0614454735  24.3232868955
H  1.4592374550  8.7438268625  25.0794849682
H  2.4959351219  8.2549937188  23.9549947311
O  7.9783433209  4.3782684206  31.5539093257
H  7.9779294441  4.4661253618  30.5936062940
H  8.2670176836  3.4372644951  31.7112363833
O  11.8191528579  11.6101233747  18.9296210230
H  12.7133145325  11.6821412252  19.3255587368
H  11.9494400677  10.7127994967  18.5771415890
O  24.9899062440  26.0780454338  30.3837289339
H  25.3445257787  26.1056162147  31.3184977194
H  24.0900243975  25.8536788907  30.4198870809
O  2.4183772508  36.2182301400  18.2598479894
H  1.5782778829  36.1033662068  17.7150333062
H  2.2389407345  36.1553883974  19.2641739791
O  31.4423420253  15.0214281553  21.2506758782
H  32.0431024339  15.5068636963  20.6732631747
H  31.9612804734  14.3440810438  21.7490071902
O  8.9359690484  11.6146403403  28.0973845309
H  8.1859297896  11.6071780255  27.4485123683
H  8.7029837379  10.9076235019  28.6901697570
O  8.3340391833  14.3689535101  29.4224451824
H  8.0516812425  13.5547377155  28.9606567898
H  8.3038753721  15.0285332155  28.7159024856
O  13.9366185155  6.0248120075  28.3432637609
H  13.2829266406  6.3660213668  29.0470215582
H  13.3927300303  5.6727157016  27.5942353710
O  33.2798983867  34.7122922274  14.2123204212
H  34.1417578162  34.3548055477  14.5050557315
H  33.1029615291  35.5095325123  14.7459248751
O  1.9892145088  10.8491915611  21.5309347347
H  2.6551833062  11.0878757120  20.8893681370
H  2.2378767094  11.1886591946  22.3543178774
O  24.9121428375  16.9166694406  31.6943914928
H  27.2566067766  22.8742306309  19.4667897459
H  2.2298881937  7.9764825191  29.8568931391
O  6.1766691550  7.7576808754  23.1153933297
H  6.8442194106  7.2534000847  23.6171564183
H  6.6299341980  8.0051443595  22.2598466710
O  11.7696030311  26.0059278236  30.4107918812
H  11.4970950320  25.9708069588  29.4768930968
H  12.7292362630  26.2812670887  30.4440808813
O  37.0462615029  34.1630021092  32.6130932421
H  32.2217841179  4.5797938029  2.6280244649
H  33.7619766781  4.6414403602  3.0705215179
O  24.5521649969  6.0110392715  22.1829236115
H  25.0797615879  6.3489419642  21.4102371126
H  0.3823291367  19.5145236627  18.5841850189
O  0.6417587947  4.1643296721  31.1121830123
H  0.5288018844  4.6181774641  31.9520477909
H  1.5956430634  4.0424227239  30.9387268701
O  9.9529233702  24.4337363419  6.0746559609
H  10.5633611358  25.1488278020  6.3720682613
H  9.5164167745  21.4968295962  31.9248026106
O  9.8820353336  10.1841666839  22.8273488075
H  10.2781180197  10.9544342187  23.2331788605
H  10.3666007897  9.3912221100  22.9405391225
O  19.4998724914  9.0411079474  30.9775199285
H  19.0883008536  9.9089589396  30.8500622545
H  18.7407279107  8.3640416485  30.7966895270
O  10.4836170220  18.2292390684  27.7896952565
H  10.5174366568  17.4828956388  27.1401747238
H  0.5345917107  20.3276561182  0.6251933363
O  6.7045840648  13.2952090005  1.5648712806
H  7.6379642829  13.0775125196  1.8015715157
H  6.4067903244  13.8997950542  2.2395220018
O  11.2730280598  16.3606513058  18.7454769104
H  11.6416278880  15.6803697779  18.2005516695
H  11.9577749988  16.5833232670  19.3769070482
O  10.4632615191  32.6451024810  30.4107730940
H  10.5728431061  32.1705205946  29.4568553122
H  10.1039207761  31.9385555735  30.9392129797
O  6.6201789413  4.8798544250  34.0421062982
H  5.9172459467  5.5199303264  33.9382349213
O  9.1314932263  0.5050976311  36.9222653949
H  8.8084334228  37.0318702660  0.2447344272
H  8.4257319374  1.1671525709  37.1444274570
O  10.1085459225  4.1428426595  36.0583833691
H  9.2302321118  3.9770701270  36.4499933860
H  10.7390433354  4.2532930418  36.7921593618
O  5.5085075790  2.4015128339  4.1646917344
H  5.4954196312  2.5878978122  5.1246470072
H  4.6064027747  2.0747743105  4.0512569259
O  3.7376074008  28.6404159574  36.4160803725
H  9.3756613451  4.8907775881  27.6673657054
H  2.7452931905  28.8093884886  36.3984384823
O  15.6792063269  8.1702962017  11.5299015407
H  15.8428664271  8.9052202491  10.9335595410
H  14.7122141363  8.1878191705  11.7260928688
O  1.2302451049  4.5084575951  17.3395677649
H  0.8121109712  5.0221370138  16.5919831959
H  0.8111837851  3.6409050421  17.2260429230
O  15.1847924075  37.0146720309  35.4755817553
H  14.5183384348  36.8161621280  36.2425035837
H  14.6694824278  37.2005802024  34.6546592024
O  4.2325236225  11.9943611152  27.2211503986
H  3.3571417986  12.2332746583  26.8725328196
H  30.1788955323  4.1017312815  36.4148887072
O  17.5961687053  25.3117329618  27.0085845919
H  16.8512227632  25.9402240770  26.7561642363
H  17.1179570439  24.4420512176  26.9532661485
O  6.2075280601  12.8124156406  35.2973185446
H  5.9896710492  13.1940621406  34.4458844144
H  7.0017941819  12.2673493083  35.0845215534
O  25.1105945688  13.0183685607  27.6241464459
H  24.5063963138  13.1855203886  28.3852555739
H  24.5616029674  12.9548298026  26.8550248844
O  4.4922857508  36.3978406135  25.4158122718
H  4.8136393756  36.3071885814  24.5079367641
H  3.6788680662  35.8510529702  31.5843826748
O  5.2818411133  13.8668066788  32.7893623303
H  4.6802742524  14.5838348431  33.0106588647
H  4.7645308582  13.1566631382  32.3212898820
O  12.9265337831  8.1023526453  35.0706717184
H  12.5628105985  8.0489509809  35.9866203626
H  13.4022907944  4.0896464565  19.5636871021
O  4.9933954650  18.4195904874  36.1629923072
H  4.9198209913  17.6790228762  36.8431892511
H  5.9548179318  18.6124728958  36.0904297311
O  27.4649756947  10.5198017001  1.3316431202
H  34.5321900375  5.4545570969  32.2899468298
H  26.7529304638  9.8406785349  1.4706823621
O  4.4575665604  16.3168290135  33.4547167804
H  5.3341344528  16.3929258600  33.9058953038
H  4.6961066702  17.0797999281  32.8088826362
H  32.7597169610  0.1223766066  26.2674959485
O  2.2635619461  18.2683119046  34.7660331392
H  2.0758931388  18.4166892153  33.8601406913
H  3.1851458192  17.9962666581  34.8120761292
O  6.5376740828  17.7281611575  6.8975837079
H  2.6133596676  34.1631637522  34.0033458939
H  6.2355790501  17.8634391691  5.9546612816
O  10.9722075401  34.1736099555  17.4690282477
H  11.5953729604  34.2067423721  16.6852097429
H  10.5665341696  35.0850301139  17.5813685999
O  5.5060837355  0.8509100340  31.6289319118
H  5.3176201388  0.2339891039  32.3881967432
H  4.8428289657  1.4907440530  31.6583615321
O  35.9803574571  10.4193401436  34.6625552559
H  36.7278532333  10.0443672975  34.1623747740
H  35.1926429132  10.4547176514  34.0827454055
O  5.4160594037  35.6008386274  32.8942187943
H  5.3637994835  35.6279502189  33.8560300398
H  6.0970499937  34.9113808183  32.7695119532
O  0.6950176661  14.4250019908  17.6573539673
H  0.5755534816  13.6278543448  18.2569927353
H  1.5625905129  14.2626436708  17.1657697402
O  7.8440661082  8.3613432502  20.8934872924
H  8.6210202197  7.8370738111  21.1011850094
H  7.9159079043  8.6140642860  19.9946975465
O  8.9353993688  23.6626422980  28.8777354526
H  9.1203749482  22.7588451833  29.0119540669
H  9.7850383854  24.0168945345  28.5475331522
O  8.0619803169  36.2844649330  1.6956070181
H  7.1071313998  36.5879577243  1.8983351130
H  8.5029015342  36.6320061406  2.5193539293
O  4.2902471348  4.0953716806  27.7292383930
H  5.1218425210  4.6112550786  27.8979625457
H  3.9084666589  3.8847387091  28.5662739612
O  15.5609979060  12.2420346379  29.2137964173
H  14.9565661287  12.9319157913  29.4341196289
H  16.4411925565  12.3038357428  29.5728103960
O  29.6287504402  6.2037439010  13.6108493553
H  30.5683063304  6.5373183828  13.5020304770
H  29.1484915095  6.7228814884  12.8967612321
O  1.9216025261  12.9067239864  26.3092804555
H  1.3804866956  13.1875553742  27.0528119083
H  1.2821606804  12.7864116898  25.5791614030
O  17.2670207446  1.1699726322  3.0559566498
H  17.8349703946  1.5571840903  2.3299371086
H  17.1618543827  1.9233424827  3.6130963481
O  20.7500794901  25.9155522261  6.5297246427
H  19.8632229570  26.2955440299  6.3598790551
H  21.3263047180  26.5562151395  5.9689512331
O  19.8297988872  3.6533299398  4.1052277131
H  20.1657292946  3.7896076426  5.0009744736
H  20.2680263467  4.4145416410  3.7047225507
O  7.1573207451  0.8904769935  27.0303689461
H  7.8190592418  1.4977692492  27.3554355341
H  7.6828656880  0.2886795469  26.4931020679
O  0.4097803040  7.3670307586  0.4064615743
H  1.3308906987  7.5956220659  0.4399345006
H  0.0248675472  8.2520848872  0.2567541496
O  3.6675639682  9.8773910218  34.3063364758
H  2.7450806419  9.5010677284  34.0826926877
H  3.4257515639  10.7234661142  34.6849726771
O  36.5170647325  5.5448240773  35.8135044117
H  35.9535015490  5.1384955797  36.5169361704
H  36.9974216340  6.2274777630  36.3995006906
O  36.6795893750  2.4194711443  28.8367067819
H  36.2738969590  2.3600883539  29.6994685565
H  36.6968168387  3.3889123435  28.7568296578
O  8.6934758040  3.0853093055  24.2947758883
H  8.4627396548  2.4561192076  24.9679548190
H  9.4217746956  2.6258586012  23.7144496776
O  33.0675000326  15.0064210006  28.7452410821
H  32.9813722101  14.1983413753  28.1813897840
H  32.2839218584  14.9432352737  29.3729229809
O  7.9711000439  13.7685571515  14.8199147979
H  2.7079380985  6.8229960032  30.8350937059
H  29.7472595387  10.0583129805  7.8697803246
O  5.9391313085  30.8608991486  32.9542722306
H  6.4696751424  30.3101703281  33.6019432035
H  6.4605920364  31.6654754636  32.8262692596
H  36.5333537034  8.8701651970  9.9395219067
H  0.0334343604  7.5890238760  9.4773347365
O  2.5923141922  16.6450955348  9.1446787335
H  2.0489197757  17.2271453999  9.7287182901
H  36.6823549489  15.7281149915  36.5634396362
O  5.4676829915  21.5071045564  34.4136878516
H  4.8534523382  21.2281951415  33.7787661940
H  6.2172613369  20.8676769166  34.4375277873
O  3.7528186634  8.7889200683  0.0291896617
H  4.1855118672  8.8253175134  36.4499086666
H  18.1827726271  20.5702158136  12.3506817136
O  10.6608693652  29.4945173270  8.0637685596
H  11.2072046046  30.1190247144  7.6125615666
H  9.7815872406  29.6224221381  7.7321932321
O  11.0321710126  21.4699014214  12.5353756475
H  11.7859898262  21.8627012019  12.1243391805
H  11.1754650130  20.4941020679  12.4317552724
H  4.2588313727  17.8616004448  9.5134393180
O  9.3865933413  12.3213953581  20.5344409297
H  10.1534596243  11.9842090068  20.0038371107
H  9.7476915477  13.0642490838  21.1081368944
O  32.9337514143  17.5296791610  30.9533491144
H  32.3665463188  17.6242628685  30.1385903619
H  32.7957150088  18.3646268467  31.4764074937
O  33.6151069858  9.8746034384  32.7537994560
H  32.8912782551  9.2770281789  32.6042924342
H  33.2326720345  10.7586857767  32.9170798120
O  32.5235770809  28.6735148434  28.4600253111
H  2.2976755796  15.0450191231  3.9248115158
H  32.9397369321  27.8395299441  28.5761205100
O  36.4984388916  13.3905660204  35.1656743343
H  36.2776521063  12.4789125594  35.2083710124
H  35.8600256744  13.8313528363  35.8426140006
O  12.1411610186  19.0231575499  3.7601115461
H  12.1204597633  18.8497682552  2.7713869885
H  11.2991995150  18.7800611862  4.0482637984
O  2.1949774885  7.4698354408  7.1254645795
H  2.1515360144  8.4256109200  7.1922885090
H  2.1297842471  7.2471060582  8.0712585197
O  12.3387422545  10.7564854701  34.2334649258
H  12.4861074510  11.4781201497  34.8928145028
H  13.0972315750  10.8877989620  33.5831919958
O  14.4099214062  12.1697700000  19.9929837502
H  14.8306296174  11.8015621381  19.2495814661
O  6.0331645552  21.2225928313  16.7344178814
H  5.1392861940  21.5215194661  16.9195332219
H  5.9657690203  20.3518234693  16.3165326973
O  9.0760383927  27.1778456660  9.3551677295
H  8.8278047336  27.9213464729  8.7092729475
H  8.1892577035  26.7962913651  9.3645586420
O  0.3605687422  20.9824661564  13.0656723314
H  0.3317014149  21.5280714343  12.2776211158
H  36.8856683991  20.4204586411  12.9111504416
O  35.6012671494  10.7417162003  2.0491751588
H  34.6047908893  10.8273076935  2.0198651896
H  21.9048074490  14.2248157276  13.0027365490
O  14.3137223999  16.6820041934  35.8234688266
H  14.0891775484  15.8583491287  36.3090465853
H  13.8420353001  17.3327088719  36.4201315501
O  20.6742472406  18.8898826658  13.1004703271
H  20.9656700254  19.6513071117  12.5544236262
H  20.4713078329  18.0765003881  12.5191999811
O  36.4653516086  17.2225122099  3.4622062281
H  36.4662052348  16.2896078500  3.7964548415
H  35.8922887055  17.2505238434  2.7322177399
O  29.0254157414  8.0105075687  32.4965654669
H  29.8705643061  7.9152745626  32.9085433641
H  16.4471093530  11.3143991238  9.4409696531
O  36.6859206464  13.3400174349  1.9753401437
H  36.5568383946  13.5852152077  2.8993462394
H  0.4172334666  13.2847321247  1.9107789602
O  30.8974931606  26.0682552267  18.0348681710
H  31.3734184326  25.2174291726  18.1312448545
H  10.6272956653  10.9971586518  33.1619167552
O  4.7312107885  15.0442471013  0.0250230078
H  4.4827906643  15.5457416064  0.8295409553
H  3.9502889713  15.0138755385  36.6850656834
O  9.2772052776  18.7893814621  4.7020689904
H  9.4322284512  17.8436608102  4.7992765803
O  8.6524087499  34.9322205483  35.7138266177
H  8.8357201492  35.6381611318  35.0487074976
H  7.6851412042  34.9152847866  35.8893318788
O  3.5021458555  6.8929313470  2.7529198921
H  3.9511315418  7.7387052129  2.6591915948
H  3.6393646928  6.4322361007  1.9221716080
O  32.6109003694  21.3499614884  14.2823396874
H  33.2643152314  21.6845997426  13.6870568861
H  32.4890979152  21.9450778675  15.0491246459
O  18.1446161380  30.9822096042  3.6472319178
H  18.0626319152  31.2420775507  2.6898073227
H  34.3751148811  15.2860774811  0.4991588841
O  11.0856013513  21.1409552424  6.0764255191
H  11.3096910959  22.0639458131  6.2433313567
H  10.5613455106  21.0771916461  5.2373318099
O  35.7369212858  21.0655691022  9.6991209762
H  35.1502139985  21.3428540523  9.0131034925
H  36.5494965104  21.5760219154  9.5067239122
O  32.1320582618  7.3837782688  1.7214002645
H  31.5860191858  7.3766014344  2.5672371652
H  32.9545041638  6.9077766513  1.9755345243
O  13.3860174232  20.2130478966  18.6988307636
H  0.5162133705  7.4761595061  3.4583693836
H  12.7385385541  19.9340151740  17.9694475244
O  10.6554394575  21.4874374897  2.9915564112
H  11.3035619697  20.8101700553  3.1331302419
H  9.7753776586  21.0880050571  2.6990023611
O  36.9744269506  24.2720298149  34.8861097473
H  36.0110610550  24.1051203869  34.8129391400
H  37.0305266807  24.8848410081  34.1394753028
O  13.6674918302  22.3126665062  5.2409397572
H  13.3832174000  23.1565449610  4.7977806167
H  14.2402101062  21.8933392142  4.5738423415
O  8.3470404584  11.7486800142  11.4701056886
H  7.5410726667  11.1601213988  11.5256014106
H  8.5124682831  11.7941631979  10.4880651082
O  2.1811641827  19.9295558215  21.6767872972
H  1.6872727132  19.0844341903  21.8259945833
H  3.0502269030  19.6110599453  21.6584640392
O  6.5678688724  21.2292003779  5.0751313122
H  6.4669645470  20.3094465955  4.7186652249
H  6.4338203983  21.7447299512  4.2202348180
O  6.2202908375  15.0736820898  7.9761470258
H  5.4875748703  15.4734640569  8.4623468380
H  6.5476047659  14.3067485122  8.4820442890
O  29.8761790068  22.0864598353  19.0637788251
H  30.3176191494  22.6425012851  19.7368229951
H  30.3628253398  22.2443405334  18.1720390440
O  8.7625289064  20.9362210326  10.3916117430
H  8.4509108461  20.9001479652  11.3450045395
H  9.5613177872  20.5009882040  10.5365119069
O  35.8288342361  11.9697428333  5.2563712853
H  36.2339516290  12.9071964150  5.3272325924
H  34.8578141756  12.2070867680  5.3647025538
O  0.7843774336  33.4017717898  6.1635952099
H  1.5972020801  32.9077917760  5.9224324519
H  0.9918718821  34.3218359216  5.9448318882
O  35.4547843774  21.7384737501  30.7889480811
H  35.2774871347  22.6245888738  31.2050826895
H  35.0557814425  21.8474971510  29.9062417535
O  12.3554081986  22.4637445427  20.1189292855
H  11.9156992293  22.9505407482  19.3907364395
H  11.7795841088  22.3708665924  20.8878383904
O  1.4618207919  13.6163316558  9.2740223128
H  0.5672536080  13.5639140275  8.8656940870
H  1.9449619849  13.9023482491  8.4628861119
O  16.7986140370  14.0384601674  14.1331751751
H  16.9424156120  13.3285523813  13.4750805639
H  15.9867495752  13.8175138701  14.6476190457
O  1.3287520120  10.5240248540  4.3005267502
H  1.3850886061  11.2978513545  3.7122358419
H  1.8579470900  10.8510100534  5.0695382829
O  1.3743019646  15.4253665668  12.7330682169
H  1.3448139158  16.2855363069  12.3244603449
H  1.5681340999  15.7489335682  13.6595090116
O  32.8883342734  12.4753908711  5.5785694109
H  32.3999273726  12.7476667057  4.7429223313
H  32.8936461091  11.5504962512  5.5605072843
O  34.5868775477  6.5281500864  33.9215661467
H  35.1028875254  6.3992246647  34.7235654943
H  33.8112006704  7.0313611307  34.1886873450
O  12.1061428468  21.5133857382  35.6781569997
H  12.0977566145  21.0306545956  36.5088443276
H  12.3878580635  22.4420176284  35.8498009691
O  7.6269401784  25.5297485267  5.9145215122
H  7.5165766851  26.4563239878  5.6656393044
H  6.6647915895  25.2815493279  6.0539017698
O  12.8893541701  15.7396129976  8.0629512971
H  31.9907062937  9.1341658108  35.1296252076
H  32.5705876735  18.3257909164  23.2535746743
O  8.1516043507  11.1561085356  14.8672184521
H  8.0439054035  12.1681222783  14.7605735540
H  7.7608904028  10.9763373363  15.7618409354
O  3.4167614975  12.1280699530  18.8408783368
H  3.2007265256  12.4684500933  17.9797945807
H  4.3637882393  11.8822546177  18.6173958006
O  7.7589017010  16.9537120749  16.8873088947
H  34.1979920523  26.5785731499  16.1744069986
H  33.2124641848  27.5095981705  16.9703474747
O  13.9426217858  32.6108278799  16.8923369248
H  14.0864018597  31.7880445918  16.3829886532
H  2.4145668454  17.0283042523  8.3069973389
O  33.6246837896  14.0925871110  7.4858274090
H  33.3790132049  13.2507034298  7.0750860773
H  33.4196697921  14.0529092951  8.4366065038
O  32.6361212177  16.7598205834  16.1116104142
H  33.2789950042  17.3333293293  15.6795880760
H  32.8809040065  15.8286790603  15.9730116451
O  10.6543102325  24.8436063857  10.0329178756
H  10.3608647732  25.7472901943  9.7980052831
H  11.3371071404  24.6165304567  9.3818428296
O  6.0247274106  23.3079027799  25.4675615009
H  5.7076833586  23.3134909391  26.4093823476
H  6.7864644691  22.7619945146  25.4283025089
O  15.2471677951  2.1529722274  17.4461267649
H  15.5942378215  2.3877602640  18.3569043751
H  15.6508029004  1.2717545792  17.3243226942
O  9.5965954224  16.6020403797  25.4342217882
H  8.8119471251  16.8597184481  24.9511099008
H  10.3821925599  16.6299326470  24.8126501752
O  4.5931743589  16.1398036116  14.2008259627
H  19.9774602996  13.5607786674  7.7590683782
H  4.7753725285  15.2520080072  14.1837936819
O  18.0990411920  23.1551299674  20.2249024208
H  17.4779603703  23.4970339394  19.6338960613
H  17.8597852110  22.2256624291  20.4025914534
O  23.9074467374  25.5733959668  25.2279812487
H  23.9600563522  25.9018043206  24.3171243237
H  23.3369545874  24.7638559638  25.1621139366
O  23.9036663097  28.6874946037  26.4082765668
H  24.5221016727  28.1997268976  25.7984045125
H  23.2169554587  28.9449728088  25.7616196425
O  10.3870697353  14.6486228301  14.0663672012
H  10.2645024762  15.1738985297  13.2813153104
H  10.9077970124  15.3153903612  14.6186376779
O  13.8319543536  14.7379738083  19.6153303437
H  18.2808526283  25.8228698036  30.2065136177
H  14.3090308822  15.3740897404  20.2313012429
O  22.4287923434  19.2138075242  22.1444932809
H  22.1038657355  19.9263277087  22.7924336316
H  21.6238897772  18.6899784307  21.9913034957
O  8.6127306248  14.4535768855  23.0827343015
H  8.1172293437  14.6910271699  23.8639504696
H  9.3594030755  13.8502849608  23.2507283997
O  33.3614724223  16.7083615146  6.2595760608
H  32.9054286366  17.2368388238  6.9921250401
H  33.4681398250  15.8082662444  6.6334999115
O  21.7967409059  14.6357608551  12.1097151085
H  22.4508881015  14.2309267470  11.5315695372
H  34.7755006698  24.9650901768  29.1850302607
O  7.4155621612  17.6805918494  14.1409561807
H  7.8177576258  17.2217091350  13.3912690882
H  7.3669885863  18.5712608456  13.7947445171
O  31.8837421330  28.2643062614  20.4800727839
H  32.1096538225  28.1784895250  21.4080147244
H  32.0572083579  29.2085742080  20.3195916184
O  18.4334548732  7.5872071334  21.1393605698
H  19.0107128949  7.6649576339  20.4258791274
H  18.5210923246  8.3931318506  21.6692165744
O  0.1557925211  21.9655244531  15.7215657327
H  0.2819408652  21.6169456168  14.7899999611
H  24.0250780755  21.6912108289  21.6086638525
O  36.7035095855  28.2462731212  33.5221016848
H  35.9698264460  28.1321252896  34.1297133504
H  36.8655732163  27.4058737542  33.1219916677
O  13.8629424243  18.3981565280  31.6099023711
H  13.5559093759  18.0726546494  30.7137463507
H  31.4482902264  26.6292303014  18.5944554515
O  8.7450351293  14.3331420997  17.4742502987
H  8.1933882806  14.0702145841  16.7163254506
H  9.6629662244  14.0549798077  17.1723053655
H  1.3927208514  23.6158539544  35.3364396351
O  14.6770278409  15.5242290113  10.2193089844
H  14.4525849295  15.7789497435  11.1581868207
H  15.3136922444  14.8338611133  10.1572579510
O  0.6439235546  5.1925291815  14.7710664232
H  37.1041241612  5.2960567051  14.2918380252
H  1.1905071015  5.9150957747  14.4807682518
O  34.0798882140  23.1258109222  17.1065507831
H  33.0980920941  23.0343414151  17.0311445519
H  34.3991820635  22.2304645087  17.2723525610
O  7.6640341166  27.5658583179  12.6653265128
H  7.9600675108  28.0440413466  13.4325647132
H  1.8388493590  8.3690463136  13.8453053019
O  4.4495963858  0.6847507135  11.2130089280
H  4.7646270320  37.0568828816  11.4365873839
H  4.1590614360  0.6783027145  10.3032161724
O  14.0481723961  27.6661554496  32.4856591609
H  14.8000201156  28.1300462746  32.8533561307
H  14.4475834063  27.0585894808  31.8201571519
O  22.5340724930  18.7234498527  35.3258426203
H  23.3133768887  19.2626266520  35.3601950401
H  22.6687803115  17.9322593019  35.8691497901
O  1.1134997569  23.2365684552  17.7988403566
H  2.1377148693  4.4738776583  24.8123781726
H  0.6405277093  22.8100725664  17.0424210844
O  6.7730039395  13.0208669807  21.5697587847
H  7.2846190032  13.4524857359  22.2495766496
H  5.8404348050  13.1887843411  21.9577590942
O  9.2669152472  16.4085567779  12.1331702851
H  9.8607156834  17.0542818576  11.6877284142
H  8.8823595415  15.8597615826  11.4559947398
O  12.0815116487  12.1601652500  36.9659271752
H  11.3788890660  12.6857752395  36.5835406130
H  12.5811344647  12.9250859881  0.0488631898
O  16.3207030438  23.8882619718  17.7436197330
H  15.8222186349  24.6380188409  17.4198230375
H  15.7384883869  23.4366071499  18.3826491518
O  31.6127468106  13.3343653176  12.8173383799
H  31.5632408436  12.7993327460  13.6296878098
H  32.3881005760  13.8906281321  13.0510374073
O  34.7795436496  21.8982894584  12.7522008342
H  34.9865609744  22.8249969099  12.8605878296
H  34.8178033451  21.5995959837  11.8511898709
O  1.3443718112  16.6437655748  19.4581281532
H  1.3098965365  17.4685102369  18.9746192370
H  0.9091371571  16.0124572149  18.8264908489
O  7.0529170309  28.9763427391  17.2916766564
H  6.8896942318  28.2835136411  16.6370433462
H  6.3474209330  28.9371048251  18.0013092363
O  7.8107022490  20.7440911803  22.4087700233
H  8.3592791970  20.0021644144  22.0632672552
H  6.9457627137  20.3411137549  22.6914403473
O  2.1644511771  11.1298654837  37.1743775784
H  2.0182875516  11.6651864754  0.7128585907
H  1.3784015852  10.5447640247  37.0640315762
O  35.3412833454  20.3742526476  17.1566061816
H  35.1500701528  19.7165739017  16.5023254123
H  35.2514426938  19.8887640436  18.0039933440
O  9.4767426551  18.4397032552  21.3904345694
H  9.3471022200  18.4570465050  20.4557648023
H  10.3380380784  18.8547509373  21.5105444504
O  3.3921183555  23.0963915368  24.1242024623
H  2.9808226492  22.2313870911  24.3001519978
H  4.2539631938  23.1896376114  24.5860724810
O  4.1146740716  13.1550312579  9.6249933363
H  4.0380210446  12.6892880908  8.7724943663
H  4.7346487051  12.6908905598  10.1885972114
O  6.3990172989  15.8415470206  31.2891060563
H  5.8899733809  15.0540423824  31.6193216411
H  7.0418415318  15.4000089237  30.6398875794
O  14.3029771657  23.4900081698  24.9586616135
H  14.7227327136  23.4180530528  25.7968487809
H  13.9740744029  22.5935321480  24.7918081965
O  5.5278547551  24.6360783224  17.9381735683
H  4.7824685392  24.1128070743  17.4985106792
H  6.1134455782  23.9055007383  18.2130044444
O  3.4076427159  25.1678770584  26.6208495994
H  3.3491512096  24.5368480178  25.9039827759
H  3.3228892665  24.6765762718  27.4672596794
O  36.2584846823  8.9341121572  20.5510119639
H  36.4684477142  8.8069413054  19.6107644613
H  36.0943307294  9.8854949327  20.7663976884
O  4.3245108125  17.8034707691  19.8286716249
H  3.3944851958  17.5845550263  19.7425764470
H  4.3273807083  18.7794596565  19.6794972226
O  9.1290422204  23.7613347493  12.2104035392
H  9.4831567305  22.8592714919  11.9849223639
H  9.5954460435  24.3316348546  11.5456007508
O  18.7325516336  20.8945339286  32.6053975153
H  32.5439160042  19.1342257797  24.5982600684
H  1.0257519605  24.4313213348  29.1603840619
O  7.2971455546  17.2823954803  23.9477635593
H  7.0195908011  18.2175416168  24.1535826579
H  6.8531730373  17.1229970713  23.0837065946
O  0.1708703861  17.3656307749  28.2160347424
H  36.8368760225  18.0255147448  27.7688946216
H  1.0232373215  17.7346646699  28.4675997562
O  20.6486116091  5.8664320273  30.2148332910
H  0.0295166364  18.2089795315  25.0620017301
H  36.4753174084  19.1930701182  25.7770127766
O  0.2662030968  16.0585702171  36.8857792213
H  0.8894421900  15.5934821852  36.3825301960
H  13.6884353995  33.1678118090  16.1380617384
O  8.7785479494  21.7319490435  31.3473300558
H  8.1502192852  21.0050343704  31.1916754997
O  0.5132012425  27.8641946671  10.8900719952
H  1.4824147753  27.9038397519  10.8237939174
H  0.2177871627  28.5365584721  11.5651254590
O  7.5235853810  25.2583029196  2.2801936095
H  8.2229229993  25.0281867239  2.8810543634
H  7.2274281165  26.1296162358  2.5040591341
H  8.6292171291  15.3477622052  1.1150229519
O  36.5613140315  29.7119077481  12.3774261448
H  35.6831576293  29.2757728413  12.3915746216
H  36.6244745163  29.8223767524  13.3377527924
O  37.1634806010  14.0479529876  21.8985905384
H  36.5868516749  14.7285369817  21.4014821602
H  36.6189464566  13.3001087916  21.5466693680
O  0.5160250822  26.5082555752  26.2876798896
H  22.2830892651  22.5116736459  34.8911859656
H  0.0099956537  25.6903440986  26.1673211640
O  12.9601063509  10.0409978458  29.2806629401
H  13.3440210502  10.6216951172  30.0329944869
H  12.4551154163  10.7198036796  28.7619493549
O  8.6731552960  6.5996349904  35.1914185229
H  9.2594628739  5.8763778242  35.5071214148
H  7.9154385844  6.1766520522  34.7775834324
O  2.6374342503  29.7127325779  31.7933132349
H  3.3790900343  29.3131459914  32.2021606537
H  3.0165416115  30.6080958227  31.5065041717
O  4.3275558728  21.4780903033  28.1084948995
H  4.8651214438  21.0541317325  27.3993236327
H  3.6996141802  20.8327755196  28.3629298072
O  9.0096999738  4.6010435877  28.5625393979
H  8.0256200325  23.9754177456  36.7120079267
H  9.7407217735  4.8532622243  29.1628408158
O  19.2562992335  13.5787228444  10.7302220367
H  19.6449084871  14.2274351833  11.3023764738
H  19.9836355733  12.9743395847  10.4367648607
O  4.9249401127  12.8862913009  29.6934028202
H  4.4664233416  12.3638672041  30.3472156183
H  4.4784060127  13.8021416091  29.6786607669
O  9.1119925654  18.7811030467  0.7026460174
H  10.0735308045  18.8913427465  0.7678376574
H  8.8434648321  18.8895677760  37.0540316497
O  35.1641895839  24.8412817571  28.2919346615
H  34.9241507979  23.9108667825  28.0293371112
H  35.9491620656  11.6383465149  1.9186012385
O  7.3429983368  23.5786328410  33.5257178833
H  7.8311792435  23.8709190326  34.3191932830
H  6.8137759241  22.8382712497  33.8163558539
O  7.0484484202  19.4400228841  30.7474095189
H  7.0451171386  19.1719042190  29.8417290787
H  7.4916372062  18.6434825604  31.1747444712
O  10.8224397910  25.6763448864  36.5948721488
H  11.1396001698  26.4001112465  35.9858453210
H  10.8504235261  26.0664692827  0.2288356172
H  8.9780201436  8.5766075928  35.8752253215
O  2.8639836045  15.0519245365  29.7700227585
H  2.5830024522  15.1679428949  30.6759855281
H  3.0555618658  15.9528468397  29.4407917189
O  9.7126439817  10.9262115404  32.9063784697
H  9.5936431918  11.6377157507  32.2449017914
H  14.6789616399  18.7894457259  31.2575058376
O  11.8736394686  4.6472673287  1.0131718876
H  11.9299534080  5.6184294045  1.0411731653
H  12.8099923965  4.4904585903  0.7423706973
O  2.2254364610  23.2939469467  35.7884172955
H  8.3145056837  18.8493908816  4.6366886649
H  2.4404499035  24.0011032571  36.4004309723
O  10.8414012083  8.4198810461  13.7903929454
H  10.7568003356  9.3786772078  13.5423903065
H  11.4085259107  8.5168584466  14.5551149043
O  8.4734950421  21.5627312864  18.1933643001
H  7.6069133589  21.5565578140  17.7704578202
H  8.3466526458  21.8458902260  19.1302823963
O  10.4219437000  24.4344680683  32.3254247596
H  10.8421967118  24.8164148707  31.4913203132
H  11.0229509439  23.6352799403  32.3445047831
H  35.8182670012  12.3704060503  25.6136914328
O  20.0409348759  24.8832074593  36.4090169628
H  20.1326788480  24.2436514302  35.6616450257
H  20.6631612127  25.5964788227  36.3057082222
O  13.2022197256  24.1430621235  36.3320229703
H  12.3727774558  24.6014014233  36.3863083599
H  13.5721950544  24.4591280613  35.4292397989
O  22.6589177889  21.9203853242  1.5715019046
H  23.5421655382  21.4229222464  1.4070080109
H  22.8552370489  22.8648721923  1.4462648158
O  11.1979482831  4.7666146679  30.1155181296
H  6.7832278405  16.7948227052  7.1068403988
H  11.1725240636  4.4105301990  31.0291324769
O  4.6161285330  19.0416421431  31.9614342818
H  4.1946554261  18.8424384204  31.1174489926
H  5.5317574756  19.2856147548  31.7509231601
O  22.9705141046  10.2147856087  1.0869453958
H  22.0451980702  9.9375817299  1.2642125168
H  23.1112778021  11.0755753389  1.4982920626
O  2.6831133753  15.1081484559  35.4237225436
H  2.5843899423  14.1740908411  35.1190889581
H  3.0384421031  15.5820953855  34.6282331597
O  19.1335214807  22.4466125027  35.4088900909
H  18.9961293178  22.4128504403  34.4875646156
H  19.9187057254  21.9381738576  35.6276725270
O  14.7679688269  9.6937129073  27.0393384268
H  14.0266364127  9.6769244722  27.6128095288
H  14.3549968217  9.9524243298  26.1734190886
O  30.1013922567  6.8464168568  18.2342825768
H  30.6472603042  6.3841053874  17.5653206875
H  30.1370204219  7.7739144826  17.9912945354
O  9.0322046613  11.7700643289  35.5718325490
H  9.2937252675  11.4386105254  34.6808343877
H  9.0105375164  10.9723140736  36.1150103217
O  4.6140267297  27.0969458999  23.0364480061
H  4.9007827971  28.0229901166  22.8712657147
H  4.5448937837  26.5908697509  22.1963097666
O  3.7168385346  24.1381742194  0.7931542966
H  3.1099637211  24.1190104690  1.5625463195
H  3.9298995159  25.0997849859  0.7155355989
O  5.9527250145  19.8321846222  25.7696320300
H  6.8391098640  20.1972865281  25.6205252861
H  6.0970192049  19.1548318801  26.4799430102
O  3.7147090487  20.1134099879  14.8264664731
H  4.2025540914  19.3738675366  15.1442227494
H  3.7140906264  20.0717662674  13.7986594828
O  5.2317719107  9.6575469801  29.5052908588
H  4.2657228015  9.6553194622  29.4326299732
H  5.4944662360  10.5831002233  29.3169851432
O  10.5056076401  21.1428833672  28.4117364741
H  11.1913541642  21.8629113954  28.4146204771
H  10.5806530660  20.7202466045  29.3263553792
O  7.4169997526  14.5344988341  25.2714126929
H  6.5526737384  14.9849896720  25.1952648886
H  7.1740120419  13.6280755839  25.6024286833
O  3.4911569197  0.5298150649  34.1377813566
H  2.8595480227  37.1520016784  34.3559158213
H  4.1170483181  0.6188763323  34.8793728365
O  0.8489227412  8.2826024270  26.4919181957
H  0.0108692629  8.7803231806  26.6163199495
H  1.3315116282  8.4678385501  27.3298030708
O  35.7692212686  18.3546858265  5.7797379509
H  36.1043896881  18.1791266927  4.8811028019
H  35.0545061120  17.6334608806  5.8216940442
O  28.5250938972  9.1775510883  28.9372398023
H  29.3845742046  9.2791493352  29.3411819481
H  27.8442895452  9.0963546021  29.6332292327
O  4.1796287141  20.9963011006  0.0351176373
H  3.9319072525  20.6954306807  0.9182917220
H  4.5628457104  20.1830805874  36.9392731158
O  29.8195291545  25.0996668853  30.3130027969
H  30.5896555834  24.8505124482  30.9037069775
H  30.1634972292  25.4292349498  29.4427611605
O  6.4311659540  5.7755031041  28.3407173630
H  7.2964500411  5.3736966084  28.3577534461
H  6.4878263039  6.3488271544  29.1274260087
O  8.1221457180  21.7396046672  24.9503352944
H  8.5092635537  21.0475740400  25.5486610643
H  8.3235108227  21.4555818910  24.0577556974
O  32.9307396855  15.6268053993  35.0702682239
H  36.8531839139  25.2006381285  28.9805827743
H  32.6136664439  10.1956193651  36.0228129310
O  1.6880459602  19.2674981481  32.2288360232
H  0.7072308971  19.2728917738  32.0874769403
H  2.1035286523  19.0813454216  31.3845650470
O  25.3198238648  11.5024354938  25.2375766285
H  24.6867115039  10.7356499204  25.0782585709
H  25.2227976672  11.9979729906  24.3758324134
O  11.2038070535  21.5068704325  15.3795109178
H  0.1945325363  18.3084113330  11.4442023048
H  1.5138399527  18.7764747748  11.9887284716
O  34.4336564411  5.4056385240  23.1282246936
H  34.7567277169  5.6772660331  22.2453752331
H  14.6381906784  30.2658872796  8.0444739291
O  0.0411659795  32.0647892083  25.6150130723
H  0.9362587237  32.0930025269  25.2451423074
H  0.1862986571  31.4277322403  26.3199954020
O  17.7737409049  20.6244568690  11.4826055332
H  18.4779853428  20.9966018786  10.8773980331
H  16.5546645379  30.2422765230  12.8964305696
O  25.5824144539  23.5441616800  34.9842489112
H  25.9471873693  22.7003311242  34.9161261216
H  24.5911917621  23.3350577353  34.8973142514
O  20.2253261948  2.5347134827  15.2959144873
H  19.9534471786  3.0159548056  14.5116143536
H  20.6036994030  1.6829956112  15.0255464415
O  5.0932395498  6.9305101659  7.6801741614
H  5.2457306617  6.1037914555  8.1498339105
H  2.1845608521  12.5725414639  15.6153386421
O  8.7927510489  33.6162213549  1.2571945525
H  8.5118572439  34.5417543359  1.2717890884
H  7.9510278237  33.1596205616  0.9506516277
O  4.9637614154  22.7412080099  3.5491797289
H  5.3615847961  23.2459823993  2.8057996543
H  4.3806939132  22.0927628314  3.0997637253
O  5.4047315958  2.5572945155  6.9001230388
H  8.4888020756  32.2990365982  34.6163132336
H  4.7442545103  1.9651512467  7.2768847860
O  10.9189877022  28.2858717185  16.5981180072
H  11.1518836954  27.4638123483  17.1136095431
H  11.5351506712  28.9389613438  16.9222486701
O  5.9921209653  6.2672406326  36.9732764041
H  6.4227131072  7.1087076373  0.0008162614
H  5.9522377089  6.4604315046  36.0632620622
H  15.6619827617  16.8721251922  10.2316360266
O  5.0683763305  28.6451682186  19.1997040437
H  4.2446892665  28.6969537402  18.7432215517
H  5.1316791652  29.5169329844  19.6649629275
O  33.1446422491  1.4788755707  19.1476705898
H  32.5315339070  1.0359497913  18.5711028330
H  34.0094006295  1.5539864258  18.7115011575
O  9.6143894222  33.4525419765  4.9397142814
H  8.6988878372  33.4131494196  5.2658244955
H  10.2773238508  33.1851603477  5.5907869718
O  8.8000081995  28.4254092934  0.7345401214
H  8.1732548968  27.9488998355  0.1744575814
H  31.0726338505  25.7922717104  11.1120450724
O  21.6692057945  22.4970976519  7.2478196825
H  20.9920950759  21.8755759158  7.5366495143
H  22.3231428975  21.8125475909  6.9487702482
O  11.6250615032  20.4106571229  8.5508093778
H  11.7194901813  20.1735028307  9.5081352261
H  11.8139510051  21.3817304832  8.4684100592
H  37.1060115702  32.7957292934  9.0287151210
O  3.9315514462  30.2373790133  8.3212216264
H  4.8000971079  30.6677003527  8.2675180648
H  3.7248091939  30.2486186758  9.2429942854
O  8.6615731101  29.0890726315  14.8265605783
H  9.1967686343  29.5955796580  14.1748979210
H  22.8048891215  32.2761078429  3.1782158050
H  8.7515243630  3.2500695412  10.7142303249
O  4.7559080724  25.2602964747  35.5336211307
H  3.9446378564  25.7033408592  35.2179469262
H  5.2452527349  25.4988720234  34.7336692262
O  14.5531398156  24.8274105868  1.4952501815
H  14.9803453263  25.6695541832  1.5182770554
H  14.1838894201  24.7972450412  0.6132196580
O  2.7728932719  32.0587361213  16.1206241780
H  2.3233625047  32.5349569598  15.3737251410
H  3.3693471305  32.8265226933  16.3797951809
O  32.1147529187  5.1709811976  16.8919005640
H  32.2459612548  5.5134762869  15.9466579694
H  32.9850313921  5.1729040139  17.2905474793
O  16.4219548559  6.1605612826  13.0885968155
H  16.0178246291  6.8706972799  12.4893840775
H  17.2841750019  5.9640837583  12.7573128251
O  7.8615544806  32.4918553991  13.6911519926
H  7.2966737770  32.3734711018  12.9051380334
H  7.6063453647  33.4084197554  14.0513638671
O  0.8134875323  35.8737266819  10.2187115882
H  13.0109012672  20.9343967960  19.2247824303
H  0.6522648876  36.6443403162  9.6317952172
O  6.7245114997  25.7748344150  9.2076869912
H  5.9359773632  25.7600849797  8.6636571482
H  7.3771902935  25.4022919266  8.5888584713
O  8.6933993639  36.0221530625  8.7262704527
H  9.2642113329  35.3128083532  8.4454967834
H  8.9506566994  36.7633316013  8.1620407352
O  9.3480972158  29.6776296334  21.9404609650
H  9.7160444347  29.9256854842  22.8129210013
H  8.9549631259  30.4594921755  21.5526864079
O  2.6745065827  23.4404089433  14.3854905973
H  1.9253844628  22.9344282615  14.0471537984
H  2.3402647481  24.3532920628  14.5418784377
O  0.3144546781  25.6198137542  32.6478218680
H  36.7649151066  25.3168600272  32.1849484938
H  1.0361336532  25.2689502247  32.0698818764
O  9.2427076751  31.9700324582  10.2965137200
H  9.8232534951  31.1719840668  10.0284271061
H  9.7618798389  32.7631481010  9.9075936378
O  2.9089456525  31.5487358620  5.8556030020
H  3.6102547944  31.4483861591  5.2409003545
H  3.0540277620  31.0377792332  6.6838256190
O  3.6921932916  5.1149899476  0.5797360782
H  3.0561000247  5.1361584435  37.0916275747
H  4.4793785121  5.5724386207  0.3125969439
O  11.0525389667  29.2102705695  10.6451740065
H  11.0365014311  29.2654642015  9.6567553349
H  10.5087963535  28.4594429754  10.9093656724
O  34.3785809100  25.5594917094  11.7302419870
H  35.0002405544  25.3216407988  10.9969023484
H  34.6932260808  25.0714125321  12.4545801444
O  26.8464347112  21.6608109293  6.9933650771
H  27.1090043092  20.7339267175  7.2586253916
H  26.6432106743  22.2399690695  7.7537573451
O  2.5660800127  14.0272107616  6.7827681397
H  2.6964246689  13.0603944942  6.7997569162
H  1.9276492689  14.1444225845  6.0104067566
O  7.0770064818  33.5863562635  5.5120742185
H  6.7170746876  33.7660924019  6.4363618496
H  6.6731900951  34.3362383733  4.9752466250
O  14.7146247837  24.6648588223  34.0788332494
H  14.4742167888  25.2987990837  33.4345531257
H  15.3938473516  24.9895363920  34.6938557145
O  6.4226535701  34.2539505245  8.2148141361
H  6.9831929334  35.0503368026  8.3448139319
H  5.5558085438  34.5492193817  7.8570105488
O  4.0760787840  3.9716937030  17.4341232275
H  4.3163569151  4.3703102009  18.2987241940
H  3.1368026548  4.1887927800  17.3486672914
O  34.4427535098  31.0129922085  7.3713093067
H  35.1550636511  30.5879944700  6.8518878635
H  34.3881199922  30.3914639557  8.1163031634
O  1.5597018692  31.6005965255  35.1267139717
H  1.4185614171  30.8650758715  35.8173812625
H  2.5051268550  31.8559634305  35.2178603630
O  13.1886784970  25.2431803743  3.8354505250
H  13.5925112290  24.9992656757  2.9372704455
H  12.2412647294  25.0968776409  3.7883663455
O  2.5929141194  19.7133969232  7.1020928543
H  1.8763441883  19.8677781999  7.7086079090
H  3.3289971330  20.3809775384  7.2490253869
O  4.9552111518  15.9737568017  11.6521296321
H  4.7805107825  16.8340542141  11.1954896526
H  4.8373071145  16.1693898248  12.6028660817
H  31.4690922164  9.2454417139  15.9295618202
H  35.1372580042  34.8268779337  7.0355175391
O  10.8571922258  35.8893647220  5.8524638487
H  10.3411998527  35.1728902639  5.3955030700
H  10.6951043026  36.7180246122  5.3593081695
O  34.2995481082  30.3141687336  18.5130729953
H  35.1050324203  29.8034949266  18.6436013144
H  33.5599206507  29.8975915882  17.9669148664
O  10.9186802362  34.5833716584  26.7531166647
H  20.6198302077  5.2420450511  18.3952186626
H  20.6820981705  3.7297441618  18.1759595267
O  36.4732619519  5.0571064181  7.4952807030
H  36.2065789896  4.7626385433  6.6103307739
H  33.7445966186  6.0383881920  23.2680442527
O  33.2076456888  24.8502328928  14.2865276027
H  33.5795125957  25.7069057864  14.2061503671
H  33.9983659986  24.3015353971  14.4834159370
H  5.4264375550  35.2449874861  13.0304104036
O  4.8826187468  30.5121833521  15.2942702395
H  4.0372294269  30.9771191917  15.3807349921
H  4.6649127763  29.5986182580  14.9865698613
O  10.5278572302  31.2540662652  27.8646267630
H  11.0250278170  30.5282038746  28.3757421900
H  11.2021985345  31.4724880526  27.1429111791
O  20.4701301284  1.3225063026  17.7683368340
H  20.6078871947  0.7852972381  18.5904093543
H  12.1856525761  12.4589323000  27.8229259649
O  4.1066626343  6.1465757781  31.6822912229
H  4.1773211918  5.2308942835  31.2525442015
H  4.9839150290  6.5773376378  31.4557934707
O  10.1179716684  2.7726586179  14.3817714412
H  9.9952143810  2.4938562134  15.2856259583
H  10.4640486600  1.9934533879  13.8765726136
O  26.9351649609  24.6524398427  19.4268743916
H  27.4641871801  24.9803053406  20.1920486987
H  27.6101373657  24.7841665131  18.7257392718
O  29.1201534955  33.1014906614  13.2545414523
H  25.6260106719  20.2270247944  13.4700118621
H  29.6300043782  33.3899467553  12.5111710862
O  21.0911925961  20.9896817634  23.9711811271
H  21.5796085469  21.3768945140  24.7233060423
H  20.2336551525  20.8643691550  24.3556536944
O  12.3835439460  7.3381935822  30.2087536461
H  12.6222714603  7.4181688760  31.1736017583
H  12.5362810995  8.2633084348  29.8925476305
O  1.4032361861  1.8314351780  14.8322469977
H  1.0822229470  1.1495205899  15.4198590539
H  0.8924302166  2.6482922616  14.9726396686
O  33.7062240199  17.2374634419  10.2843019061
H  33.2888235744  17.8450093627  9.6652815612
H  34.4767078249  16.8735861455  9.8079209041
O  18.8032303197  25.8411645611  29.3963527637
H  14.5066611016  1.3499268392  13.3425354556
H  18.1174873799  25.6763594781  28.6573312446
O  16.3289474990  29.2590031363  33.5218787262
H  16.2596068337  29.8153069301  34.3285326537
H  16.0869207740  29.8833358627  32.8203245204
O  9.6604367067  27.6308468241  19.4701127788
H  9.0094460621  27.3918307434  20.1637708113
H  10.0976257166  26.7841114635  19.1964999726
O  31.1666831709  34.2280454648  11.3475140054
H  30.9434620853  33.4548410328  10.7354394203
H  30.6616622349  34.9468836321  10.9649354549
O  31.5842179912  25.0183962735  11.3365653622
H  32.5273361009  25.2734729976  11.3385214124
H  34.0578240851  18.6079321868  14.5754461077
O  13.4966544164  10.6653708777  22.3801509211
H  13.1427200283  11.3742966082  21.7895318609
H  14.4450730387  10.8052946584  22.3564505678
O  6.6842218150  3.1709348704  16.1684775436
H  6.6118670304  2.6836797709  17.0177261475
H  7.5833156822  3.5960845252  16.2458065070
O  20.2818604115  35.0255953061  16.3301536603
H  20.9431875084  35.7015304115  16.0657894141
H  20.7080045240  34.4871607193  17.0617674356
O  11.8129827465  26.8094092913  34.0016234125
H  11.5111619001  25.9839419660  33.5469429552
H  12.7023241378  30.9244120834  14.6033254924
O  16.0150004629  27.5974155766  22.4811323882
H  16.1180864492  26.6225665237  22.5454049119
H  15.3654665160  27.7092819511  21.7407932746
O  8.3117651844  37.1690410864  19.9959254672
H  8.8025985532  0.4126564271  20.7480949105
H  9.3294017289  28.7190284111  15.4397009048
O  24.2832042020  32.9963911435  17.4137547262
H  24.7187494450  32.1647492713  17.4064760824
H  25.0622616354  33.6095636939  17.2933336114
O  8.3885284837  4.1106631557  10.7168527418
H  7.1463998024  33.8616313419  22.6058233932
H  8.1110888994  4.2266723705  11.6272010180
O  32.7782275291  20.7596894983  10.5164112604
H  33.3117418080  21.4463793621  10.1104038873
H  32.4951042047  20.2788707038  9.6605570244
O  35.7945590042  4.2963930684  20.4232676135
H  36.7365457541  4.2866931938  20.4215239706
H  35.5585323400  5.2154455056  20.5121386839
O  1.1742029487  1.4044364215  7.2960431605
H  0.8634106910  0.8563866652  6.5891182104
H  1.2423810124  2.3354565397  6.9797988798
O  11.5122445728  30.3749603030  19.0894031018
H  11.4919367734  31.3309186843  19.1762540343
H  2.8916611427  13.5472046569  20.0776969420
O  10.2324376494  8.6056324097  1.6458070343
H  9.7275957298  8.6722815905  0.8079257891
H  9.6133340583  8.4125845225  2.3666426610
O  6.0509123909  7.7915488166  34.1013400090
H  0.6234047405  22.8272503345  18.5956534262
H  6.8477576100  8.2498486715  33.8376707324
O  33.4956282105  29.1978176963  9.3375187394
H  32.8898586337  28.5860692225  8.8712237735
H  32.8189876420  29.6707198288  9.9200720163
O  24.2873195973  23.6192536163  18.9477929118
H  25.1673209324  23.8980421398  19.1830715464
H  23.7559436811  24.3723328271  19.3672008758
O  8.3961702247  35.4548315957  11.3598749632
H  8.7559634368  35.5101278326  10.4896305238
H  8.4259226206  36.3507693191  11.7632727936
O  5.0305349474  31.2547629371  20.5457638262
H  5.9733333335  31.4394698175  20.2766584070
H  5.1028494046  30.7490782711  21.3760404300
O  1.5968504487  36.1121316598  13.9005463807
H  1.5889862957  35.3080600084  13.3612596349
H  0.8331042053  36.0165271040  14.4602074534
O  0.9491056253  1.6887536022  11.4820103286
H  1.2128156556  2.4511420482  10.8533641522
H  37.2187073990  1.7801765334  11.5825252716
O  12.4785722950  4.5941853771  14.1083058846
H  12.2245218514  5.3833801781  13.5943067550
H  11.6966301450  4.0678769115  14.1528332098
O  12.2025377920  31.8251775331  25.8245557800
H  13.1742841933  31.5686893311  25.7952895139
H  11.8512478026  31.9017496954  24.9162230923
O  0.6099836211  31.9165733694  17.6397450547
H  0.2528328692  31.3285801009  16.9678821037
H  1.4413017024  32.1490783175  17.1836242204
O  33.8783703892  33.0041822514  18.1797735773
H  34.7611191285  33.2631854782  18.1845845384
H  33.8028227087  32.1183142524  18.5177807522
O  10.5738300687  27.8263249832  23.5288519264
H  11.0596717291  27.0757987234  23.8255001056
H  9.8059511124  27.9355793878  24.0839471012
O  37.0393263470  25.7198492625  17.8097168560
H  0.5813958957  25.1959924129  17.8339575644
H  36.8416802645  26.1218090746  16.9029118610
O  0.0973852914  34.7862672410  21.3746625785
H  37.0796800037  34.5303447432  20.4819187228
H  36.7131335884  34.5236882730  22.0435697613
O  35.5235940102  27.4869860657  19.3129345152
H  36.2920155638  27.1390860364  18.7965597601
H  35.8326207541  27.5545665788  20.2218178839
O  5.6491240714  30.4477614978  26.3184143847
H  5.8214714465  30.5587698626  25.3614027992
H  5.4322311894  29.5068907862  26.3201826871
O  6.3035792861  33.9545866091  26.2455619115
H  5.8770810736  34.8139895760  26.2182352785
H  6.3474057631  33.6257286894  25.3690384641
O  35.6158966843  9.4398986838  13.4409870478
H  36.2553901104  9.6879573694  14.0980847878
H  36.2592578665  9.5751812220  12.6768093664
O  36.7473851753  30.0392528892  15.2031914737
H  35.8416315367  30.4234807568  15.2632153391
H  36.6856211340  29.1169700621  15.4582951591
O  32.7730073866  2.7597546256  10.9005028505
H  32.2115164957  2.7738525503  11.6997409776
H  32.4391726759  2.0622579570  10.2532747187
O  4.7854747722  24.4312148238  6.2426785577
H  4.6701265243  24.3398916508  5.2684209845
H  4.7444884620  23.5061392493  6.5475793184
O  4.0587463628  35.2291396251  14.5149105178
H  3.1083105931  35.3186646839  14.5400904865
H  4.3541076926  34.8816689159  15.3717105594
O  7.8463280170  26.7551494814  27.9264666216
H  33.8968428521  35.7643838013  6.9437951102
H  35.9540080739  26.4322354030  22.0416478490
O  18.3229120805  33.6292732844  27.2599804725
H  17.6241479354  32.9488148610  27.5488874340
H  18.1634399623  33.8617059606  26.3309650965
O  11.4248583980  16.1976464467  36.5180422370
H  10.7581432797  25.8282734549  2.4831915607
H  10.9468146562  27.2456090655  2.9994403829
O  14.6647839191  29.7159849680  7.2389361749
H  13.7505750730  29.8519418323  6.9286513776
H  36.9924188115  4.4178043449  7.8906428099
O  3.1063915217  36.7680813509  28.5855031030
H  3.0112697019  36.4377757493  29.5295537460
H  3.8879694337  0.0618656106  28.6171568335
H  9.1033897810  25.0399407502  5.9846014164
O  6.9959105140  0.9919222635  14.2749458254
H  7.4312230941  0.2135373270  14.7163007219
H  7.1206558052  1.7088304070  14.9663213826
O  14.7062830586  37.2188952728  29.9653518324
H  13.9581720470  36.8635908237  29.4317870489
H  15.4477358203  36.6896633154  29.6289894738
O  37.2160196980  18.8230930113  8.2637444807
H  36.8308730117  19.5089538904  8.7810136622
H  9.2895849972  20.2669737542  33.8013947992
O  4.1004879029  30.1013352523  28.7777828430
H  3.2464516954  30.3947960565  29.0586783348
H  4.5739747963  29.8385180880  29.5652480105
O  10.5925434942  1.4958594210  30.9594949712
H  9.6615730718  1.6662530974  31.1381220189
H  10.5616406695  1.5382106802  29.9837573910
O  5.6435220695  25.8692725789  32.7557872481
H  6.3692052814  25.2258200738  33.0762367035
H  4.8551616054  25.3313529967  32.5013714336
O  2.4919170518  30.3787811059  24.3169273175
H  27.2296200328  29.3539487793  30.7391507380
H  1.7319405163  30.6134226584  23.7501256784
O  18.6840596413  28.5403413692  29.3244843177
H  19.0802415312  29.0116800756  30.0619914310
H  18.8124056910  27.5991605253  29.4165864662
O  8.4858469059  0.9893834882  12.0019700913
H  8.2712864385  1.0959916623  12.9602640501
H  9.4237430070  0.8482939381  11.9224769438
O  36.9876885114  31.2864739030  30.1886646415
H  37.1761934584  30.5244203145  29.6320351174
H  0.6092996873  31.7187351404  30.1931096553
O  8.2275942768  24.6859177496  36.1008042678
H  4.0302556000  28.8769238184  35.5184604229
H  9.1073415840  25.0439421780  36.2403429069
O  11.5131069666  30.7636324993  4.1125510919
H  11.9439269493  31.0237258637  4.9483250437
H  11.1279322353  29.8553870487  4.4074429919
O  2.7494180898  23.7353443854  28.7785633949
H  3.1109311233  22.9103051900  28.4528045286
H  2.8473362013  23.8409141281  29.6953761124
O  7.0365211448  20.0856522013  12.9851740254
H  6.8476959348  20.9143902399  13.4479312537
H  6.2407485509  19.8807305669  12.5511124065
O  34.6441900588  18.1512776870  15.1261639437
H  35.0727929311  17.5189774694  14.5450519137
H  9.3730787910  27.6754512958  1.0054648854
O  12.1970105885  36.6114296047  28.9300197333
H  11.7151403796  35.8394103236  28.5475641210
H  12.1123995203  37.2394824069  28.2250365197
O  2.3970508446  27.7481969410  24.6155159838
H  2.9545996331  27.2792722954  24.0018195990
H  2.4407748335  28.6769476549  24.3693360566
O  3.1406508296  28.2592422633  10.7040400251
H  3.8381394351  28.3916093831  11.3942921113
H  3.5302489708  27.8608658269  9.9278072399
O  35.2577935201  36.0058273538  34.7792792224
H  34.7661768273  36.3525669284  34.0358491038
H  16.3933389202  32.2640020374  33.6894674478
O  15.1264721995  30.6519781528  31.3919949602
H  15.2923045012  31.5959174501  31.2067696771
H  14.2895282814  30.5370954721  31.7344474556
O  22.6188834518  31.5824917504  3.8654030534
H  21.7570789410  31.7290301759  4.2458000823
H  7.6334235469  0.5010154323  19.7259209342
O  6.4196015625  26.0785623748  25.0003840911
H  6.4227604056  25.1208954848  24.9611536915
H  5.8873445323  26.3456889736  24.1738579970
O  6.5887373595  33.4850993097  23.3061587516
H  6.5491526398  32.5153097765  23.1682360704
O  9.2942534119  18.8959636904  18.4947769151
H  9.1418182944  19.8390198456  18.4119662877
H  8.6863031370  18.3415233679  17.9140922546
O  4.7804675655  34.1843103681  28.8200590044
H  4.3349188853  34.0452088061  29.6242128938
H  5.2902686753  34.9732717342  29.0517755809
O  14.0490830403  36.2221514118  19.4825272353
H  13.0947814140  36.0327770922  19.5396907973
H  29.8844304354  18.2418212437  28.5817333251
O  11.4657764848  26.0566838256  21.3089610502
H  11.8624117047  25.6046587697  20.5350961636
H  10.6107093185  25.5991566365  21.4764431204
O  6.1771459598  32.0108696856  0.7247916518
H  6.6466341056  31.2973291430  1.2202712519
H  6.1359845804  31.6797245597  37.0799692416
O  1.8294177890  34.6746688435  34.1939000667
H  11.5747882220  5.6622389529  30.2088216685
H  1.5034009259  34.3291277487  35.0672932925
O  35.7473999059  33.6266178449  14.8994133628
H  36.1704592603  34.3263610157  15.4011474114
H  36.5416596491  33.4324605481  14.3138923166
O  5.5665274110  29.0862022359  30.9286804048
H  6.5116918838  28.8189451504  30.9264004874
H  5.4725755972  29.8196588553  31.6234634558
O  4.4822510945  28.4098255723  33.7152168164
H  4.9783238654  27.7346457686  33.3555713723
H  3.8087431889  27.8535835229  34.1728303632
O  15.3665563395  22.1691809822  2.5731583905
H  16.2025530134  22.5594866332  2.8692563242
H  14.9433951072  22.8915613397  2.0639124090
O  9.4297496262  36.9012196230  26.0403708676
H  10.1707653440  0.2302113946  25.9691930564
H  9.7734705042  36.0995561321  26.5305997529
O  15.5723238923  34.3681993707  21.2425588580
H  16.2753546834  35.0171494709  21.5041721285
H  14.8757242679  34.9397927011  20.8948707786
O  7.4296729707  22.9271503843  20.6807171359
H  7.9247157415  23.7445081150  20.9531654118
H  7.7428712538  22.3396435569  21.3914334062
O  4.7420298184  1.8491346975  26.1235177746
H  4.6421401625  2.6826467696  26.6384188455
H  5.5828132455  1.4639129964  26.3708668378
O  11.4968977543  36.2284428521  35.2708497064
H  11.7031180794  36.9954169824  34.7015231141
H  11.3310526804  36.4600160206  36.1707063789
O  10.5080453521  31.0913433600  0.5273082968
H  9.8511447788  30.3932277893  0.4885138859
H  11.3567985660  30.6602627795  0.3268503530
O  22.8396248171  18.1339937758  2.0817231367
H  23.3602112164  17.4376846988  2.5304507209
H  23.3931588607  18.8996976550  1.8990303666
O  7.9235647560  20.7435554673  2.1503554972
H  7.4455087753  20.2030695385  2.8296322473
H  8.3135643930  20.0405262254  1.5685176984
O  14.5569541744  26.1760733662  30.0731027068
H  14.5767847238  26.5219478860  29.1793687106
H  14.8902436774  25.2041923247  30.0984152447
O  20.2661628337  23.2791224863  32.5986904609
H  20.9928888538  23.2135882767  31.9506052804
H  19.7991353635  24.0941597253  32.5369118047
O  16.6395584734  27.8320862464  37.2301249443
H  16.3165789133  27.6955277725  0.8740037063
H  16.1045526073  28.6151471355  36.8728626251
O  9.3824537702  36.3643593607  33.1903777329
H  9.1557829063  0.0387718336  33.0855211037
H  8.7573294173  35.8049331569  32.7070617052
O  32.6140027029  12.8715076764  27.1693472314
H  33.4151962233  12.8828982041  26.5633004769
H  31.9778993034  13.5022832865  26.7992226618
O  18.8487268167  28.4282739226  34.2377920308
H  18.6007568064  28.2832029461  35.1809610382
H  18.0290906274  28.6757011725  33.8646520560
O  7.2372137615  34.6486182912  20.5468035147
H  7.6727204013  35.4678268343  20.3120003045
H  7.7134370424  33.8367481057  20.2835535008
O  6.9512913787  23.0706282814  0.5972935173
H  7.1705162436  22.3742066019  1.2660747423
H  7.0334222792  23.8127515038  1.2246916690
O  0.9793644565  17.5948895928  22.1696016417
H  1.2808323446  16.9035898787  21.5436902888
H  1.1300684129  17.2802200756  23.0473249136
O  2.0953380826  0.3516139064  23.7405237926
H  1.3640909954  0.9536903126  23.5347398219
H  2.4333788579  0.8320943681  24.4695576332
O  18.1585058897  2.1560478666  0.5959570291
H  0.0663025667  27.2493319288  21.7388404003
H  32.3354725034  8.3050080104  14.9453349844
O  5.9292285135  22.7783884650  31.0442190935
H  5.8978208695  21.8174134228  30.7626883167
H  4.9886192967  22.9948904514  31.1407666493
O  22.8316477721  24.8423376949  0.9544619492
H  22.3631855646  25.4404606883  0.2889414243
H  23.7457233921  25.1688323355  0.9799692968
O  24.7064750909  2.6355144604  13.9035860603
O  16.6377139620  2.2849381027  35.4406299995
H  16.2814987876  1.3813063312  35.5779192869
H  19.9511285262  1.9404044105  4.2138679739
O  9.8049151243  15.1952550248  7.7158822418
H  10.7133972149  15.2891922877  7.9632026990
H  9.6833572192  15.3352860100  6.7701913446
O  20.9031853060  33.0733679297  8.8196258574
H  20.5780048072  33.3043727204  7.9258631466
O  27.0896166278  3.0402818227  32.0602629012
H  26.4235620990  2.3887083568  31.9844323091
H  27.6895061923  2.7538660383  32.7721506782
O  27.6135055567  16.1995128009  5.6306127283
H  28.3671076872  15.6022171127  5.5783813892
H  27.4911622195  16.2921937812  4.6825979550
O  26.9932462817  12.3342561730  7.1386827693
H  26.2614142722  12.4633855028  7.7467375252
H  7.7117544987  13.5825473474  11.3833335780
O  18.3907888355  33.6678337490  11.4024991870
H  17.5197542243  33.8026729214  11.8030911836
H  18.4970041429  34.3982936766  10.7929121189
O  19.3040532580  36.9308294162  37.0839945554
H  19.9438476113  37.2346432099  36.4133816058
H  19.8096825826  36.6431183659  0.6108359987
O  17.8405418859  28.8133666795  10.4978341394
H  17.4185568946  28.6204526093  9.6575091338
H  18.2239570658  29.6961947834  10.4823009454
O  7.7951018664  8.7001816493  3.2547395867
H  30.4119180853  35.7471985778  2.5450837668
H  7.6089506113  9.6118357737  3.4858164892
O  16.4450918564  34.8036699278  14.7948191572
H  16.0192900654  34.1828907900  14.1801979577
H  16.6134721057  34.3902501141  15.6662439427
O  21.0467616098  11.8096376307  9.9807210430
H  21.4455128598  12.0015296719  9.1236960663
H  20.4913600291  11.0457011099  9.8162070213
O  26.5221692851  36.2079161750  25.1557281192
H  25.7862578917  35.7567412987  24.6921188743
H  26.1423139979  36.9898404313  25.5888805811
O  20.0056596439  33.2411547626  14.0126128531
H  20.1624724081  33.9199782847  14.7069014934
H  19.3492423045  33.6430247785  13.3727690200
O  8.0037510065  29.1409138806  7.7938255006
H  7.6674762210  30.0303041654  8.0085887637
H  7.6556321936  28.8991870876  6.9318516410
O  5.3973680196  36.4985297402  22.7752329919
H  5.5298727487  35.6161546647  22.3583169061
H  6.2706065513  36.7163663891  22.9984949178
O  8.6810542176  27.8215630998  32.5242074724
H  8.3538422904  27.1787935338  31.8649692337
H  6.7382976810  8.5178883805  12.1862689489
O  24.1406200914  17.4434001159  13.7050894934
H  24.2332586222  16.6498587215  13.1565199086
H  23.8802147704  18.1480590044  13.0422073391
O  22.0226023151  3.5581805402  29.9514699403
H  22.5862991061  3.5126996838  30.7831667918
H  21.4254831493  4.2926963138  30.2124828128
O  7.5887543168  3.4631254824  36.8273547832
H  7.3930129791  2.9863061864  0.3966347972
H  7.1120509446  4.2809783682  37.0093611819
O  9.5791030375  31.4171716974  16.6391574871
H  10.3734461218  31.2608799928  16.0707535459
H  30.0803587055  2.3267568893  9.3501205323
O  18.8679363788  4.1002713831  13.5316152670
H  18.3992008159  3.4920032953  12.9689114710
H  19.3640505569  4.6753687965  12.8963880310
O  28.0291176041  36.4002332461  12.5217659802
H  27.2685435813  35.9034947310  12.9117693080
H  26.7211049672  3.7209224345  17.1675083540
O  23.6086448780  36.8588455693  10.3424192744
H  22.6826891232  36.4535782959  10.4138215277
H  23.8932113678  37.0258099330  11.2746212501
O  19.3598919903  5.1234336819  0.3731706751
H  19.2309824168  10.5064774419  22.0828116516
H  19.5199039084  5.5516830511  1.1973975693
O  20.9828178705  29.7519163374  12.2221350535
H  20.6868877680  30.4851929048  11.6296235956
H  21.9435381064  29.5803126753  11.9471523134
O  23.1407271147  8.6731757505  33.6461365588
H  22.7654151418  9.3639760064  33.0929346697
H  23.9350200019  8.3347482792  33.1246627318
O  35.0375844761  26.5233855720  7.1953073012
H  35.4700113773  27.3061980422  6.7750949584
H  7.3334405314  10.4255701557  13.5508044195
O  2.6551537363  36.6137185045  36.7239413729
H  1.9042826309  35.9770485787  36.5497998301
H  3.4787874947  36.1791173667  36.5848910968
O  17.3680394132  2.1087052311  12.2001069710
H  17.9711870558  1.5332191818  11.6702091749
H  16.5592087760  2.1297834892  11.7210798024
O  20.6226621546  36.3317257765  2.2916072445
H  20.2260816719  36.5369546606  3.1539770623
H  20.9193928750  35.4604311910  2.2869362824
O  15.6039939562  9.0003194190  15.7789912693
H  15.9589098650  12.0317548890  21.4287867149
H  15.4595815341  8.0218042703  16.0050339441
O  23.0082323900  1.9258677090  2.8830158717
H  22.1020839072  1.4931125072  3.1173766642
H  23.0034965511  2.0141106006  1.8796539487
O  25.6593612174  0.8031520158  8.9354990550
H  24.9428644167  0.3473745088  9.4279558028
H  26.3474375072  1.0529456472  9.5856335774
O  13.6292537138  17.1285497921  12.9759617335
H  14.4067130591  17.7018600275  13.3139979642
H  13.0789548859  17.7443625908  12.3627118694
O  4.9997471603  5.7742151338  11.3341734879
H  5.7941081726  6.2886719611  11.0809284432
H  4.2091775510  6.1432089427  10.9011464525
O  20.6155996177  15.7098645111  5.4018761537
H  20.9806172422  16.6367623741  5.4329991541
H  20.7888249143  15.3805741946  6.2902317060
O  5.4216472797  35.9959523367  4.5288564987
H  4.4980637217  36.0329857113  4.8577704460
H  5.3166026741  36.2301062663  3.5927718244
O  18.9765865288  9.1381531755  9.9516278939
H  19.5042643619  8.9530755083  9.1736389982
H  18.3528275158  9.7919003245  9.6328031874
O  9.2124782919  0.3300721737  3.8789555386
H  8.6154701386  0.5623039340  4.6148221614
H  9.5138527499  1.1943597526  3.6629256326
O  22.2128973427  0.2567040963  5.7397470813
H  21.4633858002  0.4878000236  5.1718089010
H  21.9026340617  0.5625764812  6.6186225944
O  27.4256587760  37.2199059189  17.2732120371
H  28.3399324137  0.1734344939  17.4087182750
H  26.8955180080  0.2794846745  18.0062027829
O  12.6839627767  33.1274265119  19.4503200013
H  11.9096140925  33.4278810399  18.9373200114
H  13.3296624039  33.2136065596  18.7281319657
O  25.9815308581  5.7637497488  6.0345126904
H  25.6580192219  5.8870655595  5.1030999457
H  25.1911879956  5.9306801794  6.5912907407
O  23.2948307988  32.0793267949  14.6306943540
H  23.1818834772  33.0186693069  14.2136862591
H  23.5845425609  32.2687904757  15.5343161575
O  34.0095688700  34.8038678271  37.2370231363
H  34.6306863632  35.3628933657  0.4713114829
H  34.3772676996  33.8834637959  37.2462665353
O  28.4197820445  24.7742886193  8.8308810352
H  28.6720359278  24.0011620193  8.3048877647
H  27.6298428192  24.4301004047  9.2783595935
O  37.0770434945  6.5423581972  22.7153000815
H  0.1799984113  5.7727398216  23.1569219596
H  36.1888946947  6.5330105994  23.1553805577
O  15.1344800064  3.4957389382  13.5247748966
H  15.6103129729  4.2633810539  13.1206039397
H  14.2629090161  3.8154770098  13.7019177696
O  6.1826962080  6.9096837737  4.8197026885
H  5.8900470059  6.7381327005  5.7179429126
H  5.3343065722  6.8990171443  4.3126482968
O  10.2928692748  3.0017556831  19.2856140243
H  10.1846641035  2.5564464701  20.0933143940
H  11.2525372135  3.2170064937  19.3243470373
O  36.9152467516  9.7081012305  0.0107683528
H  36.5035787874  9.6565683170  36.4279199806
H  36.2894240285  9.9844805068  0.7357020076
O  19.0179621235  29.2269246961  7.1879232796
H  19.1557159211  28.9631351030  6.2188652245
H  18.3838119024  28.5875816427  7.5741002958
O  5.4678064892  5.0798878441  13.7913701800
H  5.2517757609  5.3411037928  12.8776617557
H  6.1577415343  4.4156953567  13.7297374903
O  19.0367687003  7.1488278350  16.6304343544
H  8.7252781152  14.0965758813  14.3350126686
O  12.7681414455  5.6004800768  16.6776502441
H  12.8407744287  4.8347504609  17.1952313883
H  12.7446622338  5.3097553065  15.7839940523
O  29.5575001643  29.0602722703  8.0767726372
H  29.3961020169  28.7159701344  8.9505104381
H  29.9072886552  29.9436183490  8.3364521160
H  7.3701972591  7.5874014169  15.1567618948
H  7.2087394388  7.6678772464  16.6497101251
O  17.6093006449  3.9397645435  23.7052765941
H  18.3729131818  3.4161563021  23.9502452478
H  17.2843820786  2.3893389163  36.1893575759
O  8.1108946442  8.4270663054  18.1270911442
H  8.9691870650  7.9481869791  18.2046641376
H  8.4533368792  9.1811276299  17.6330190489
O  22.7262476914  3.0541041281  15.7856769285
H  22.7775095153  3.9971585437  16.0527329088
H  24.9873731250  12.4921445085  14.4844020863
O  27.4654870400  29.9454362103  11.3686722214
H  28.1087186713  29.2816035623  11.0731105104
H  26.9250117777  29.3944900680  11.9156278884
O  25.3427370223  10.3451489261  20.3827054215
H  24.5446832265  9.8029569301  20.1767654826
H  24.9808335416  11.1475256456  20.0268676956
O  4.8105260240  7.6741548959  18.8165323212
H  3.8674936345  7.5916545013  18.9819387668
H  12.7674431981  2.4092340333  28.5158784871
O  15.1430620286  6.6125293730  16.8769188471
H  14.2580621896  6.2429806590  16.7218482408
H  15.7642069343  5.8560139350  16.7277275508
O  12.7465317159  33.9817017793  22.2263495966
H  12.7439894819  34.1077890740  21.2345035547
H  12.4715634050  34.8813157929  22.4629644075
H  12.6824258817  8.9354391464  17.1208601714
O  15.0962184260  31.0881281099  20.9122436271
H  15.2586368610  32.0497696468  20.8331898475
H  15.2161117805  30.8200050002  19.9925066505
O  22.5435443848  3.4825360349  11.0454385141
H  22.3880883360  3.5897209841  10.1040973997
H  23.5647350270  3.7070873297  11.1511606224
O  15.0041962919  5.4086008512  24.0183593455
H  14.8809467669  5.8833075968  24.8366053012
H  14.8672372674  4.4854511595  24.1641676569
O  19.5932790010  8.1891468220  27.8109950978
H  18.8365744153  8.7574068664  27.9437836766
H  19.8361057545  8.0920823282  28.7736979424
H  14.7318036956  16.2038551154  17.2115092859
O  9.7834900749  1.9089286951  34.4995084140
H  9.5987450468  1.3676124739  35.2752936582
H  9.9749229462  2.7299165263  34.9488692992
O  12.5466180820  5.2046051680  26.1615290497
H  11.5880751918  4.9992502141  26.3279899984
H  12.5402353401  5.9602332242  25.5613289019
O  20.4156097626  7.2782950451  19.1440685489
H  21.3918234398  7.2714453376  19.1158880620
H  20.0255548802  7.5143508727  18.2869277215
O  7.0191047592  7.6148887695  11.7317281900
H  7.5442028101  7.9541037770  10.9788973275
H  11.7351301552  3.8720579546  33.2849686247
O  21.1501566331  6.2242311955  15.2610337802
H  21.9814293756  5.9767012554  15.7551842549
H  21.4435592233  6.2280922717  14.3014151536
O  20.4107325271  12.2926216452  17.8563860200
H  20.9277073777  13.1003632435  18.0419221346
H  20.8409106719  11.8970751731  17.0402726238
O  29.5866134885  2.8616310959  23.9203095324
H  28.8048439217  2.9053840154  24.4636155705
H  30.1778144929  2.2376486503  24.3839934320
O  15.0221313551  2.8631073727  22.7838068879
H  15.1629047248  1.8814959111  22.6256921721
H  33.6365737770  10.6797100094  28.5504444231
O  12.3018858301  23.2754223803  28.9447249047
H  13.2183225601  23.0113634196  29.2315644110
H  12.1845669203  24.2408173981  28.9112403477
O  15.0067871457  12.3064730139  24.8457781930
H  15.4520199630  11.9069177864  24.1041111192
H  28.4998673349  36.8287923679  13.2273246914
O  33.6838050492  34.6344868163  20.6535261359
H  34.0070543847  35.5086295418  20.3946714763
H  33.7360891933  34.0812793969  19.8758758792
O  18.3628029649  10.0950891348  22.2863893395
H  12.1153181624  10.3306719633  25.4685138421
H  18.3937299845  10.0504130853  23.2850630319
O  12.7043231276  7.2020257982  12.2280614580
H  12.1662527532  7.1120133136  11.4729546118
H  12.2246803059  7.8375854578  12.7651927880
O  20.4249964174  11.6185546903  21.0134354107
H  20.0101494272  12.5351962460  21.1416694616
H  20.4641070908  11.4335186675  20.0665398006
O  28.1506328646  32.7095469951  17.0462726544
H  28.7932098395  32.2400169267  16.5075350504
H  14.5497400152  7.3868102756  35.1990259580
O  24.8045073721  22.0794654738  29.6509467567
H  25.3314040854  22.7469290006  29.1816378669
H  24.2267538844  21.5656892079  29.0743318877
O  8.0686848403  16.0872572386  27.5666447746
H  8.8618568505  16.5546252016  27.3556461756
H  8.0053653271  15.4544258066  26.7603127462
O  15.6399550048  35.5338563272  25.8797738787
H  12.1020810483  29.6888617898  31.2302790708
H  15.8953178357  35.0687790396  25.0838124716
O  25.8824641878  31.3830423234  13.9579208842
H  25.4118936230  30.5471359632  13.7198172056
H  25.0945687825  31.8180172330  14.2451481613
O  23.4001370020  0.8627229891  17.0788344182
H  23.1764314510  0.1459941912  16.4542655781
H  23.5145695377  1.6697284991  16.6128029745
O  31.5622695932  6.8747577410  20.4954905186
H  31.3902792934  7.7461227030  20.8196757937
H  31.1465132220  6.8450695299  19.5944812653
O  30.4555288147  13.2245674180  19.3857102404
H  31.1132931745  12.4950348377  19.2906557130
H  30.8900964506  14.0457951422  19.6713511840
O  8.6291254373  5.1334745455  19.0277333060
H  8.9293116068  4.1858674975  19.3031821055
H  7.7139037724  5.2842963660  19.3231102814
O  18.6693449089  36.1771195372  13.7203442294
H  17.8514390022  35.7145301871  13.9840282897
H  19.0602853368  36.4794058760  14.5463232598
O  19.4558119845  4.6640257125  21.5030359684
H  20.0492723087  5.2436035667  20.9848557963
H  19.3150840011  3.8655571917  21.0207441228
O  25.0342589655  3.9614874149  24.0323416442
H  24.6646324120  4.7382645801  23.5574311094
H  24.2416080714  3.5787569746  24.5232582434
O  18.1815954809  12.8527923746  25.7330250980
H  18.5725910900  12.2177743420  25.0809820399
H  17.7590574680  13.5473374279  25.2829144048
O  15.9507239322  8.2609546672  22.6468978693
H  15.9962137211  8.8000447414  21.8537147147
H  16.4382366544  8.7629179008  23.3547259928
O  21.1505700301  11.2635042692  15.2189517326
H  21.3215897945  12.0854293485  14.7369630229
H  22.0270743698  10.8355926970  15.5356829181
O  12.9279228478  18.0134994718  20.6599462869
H  13.1445886585  18.8137358410  20.0290106826
H  13.8462741710  17.7464207909  20.8526394972
O  18.1522718699  6.7481070485  24.6742945022
H  18.0844008612  7.6886763537  24.9036964592
H  19.0844080607  6.5814801846  24.7460720761
O  25.5698838454  1.3330458264  18.8168773825
H  25.3039667137  0.8586995092  19.6311690510
H  24.8330911574  1.1356894951  18.1902679750
O  28.2831771005  31.7535983169  20.1306307044
H  28.1522303588  31.2099911943  20.8947089480
H  27.6404502388  31.4338112167  19.5009191432
O  24.4555203214  12.3845641608  34.2278517758
H  24.3452707590  12.2457101334  33.2694810151
H  24.1869702423  11.5425036063  34.6541197130
O  17.8037452543  10.1472166636  28.3198585896
H  17.1161354746  9.6856194215  28.9098240800
H  18.3434795336  10.7095182350  28.8831193276
O  6.8344654400  11.8474809355  25.7895163517
H  6.7773874011  11.2797501736  24.9641701717
H  5.9920100891  11.5967678706  26.2649902886
O  20.7940827811  1.5887093524  11.8916208252
H  21.0897987515  0.9172293852  12.4258269846
H  21.5787429485  2.1972326336  11.7141843682
O  21.4755586329  10.4844733925  26.9401726334
H  21.0310843948  10.8711818110  26.1554627487
H  20.9131099162  9.6674370031  26.9592835813
O  7.0310191229  16.1243026918  34.8026249467
H  7.7011729034  15.5543882343  34.3475849170
H  7.3400210680  17.0875049437  34.8256154702
O  13.4688993876  20.6688998442  24.5386552275
H  14.0385331665  20.1043082520  24.0025170373
H  13.3745610364  20.1517078994  25.3828667885
O  22.3130298041  5.5787738092  24.1968704914
H  25.4400108426  16.9698712144  32.5198706326
O  22.4314950009  4.8581149835  35.7104506626
H  21.9479333942  5.5935328025  36.1281917284
H  22.3553517659  4.2146027331  36.4228051440
O  19.2724556821  34.3449838427  20.2954606399
H  18.6178086790  34.9854963654  20.6629530894
H  19.6954450933  34.6870007885  19.5292769982
O  27.9455577131  10.0193602384  24.3458804397
H  0.2499325933  33.3095204711  32.4763517540
H  0.5300639510  34.6508505366  33.0915270378
O  19.7644064215  0.9667624710  4.4422559646
H  18.8412074529  0.8627254988  4.1524957884
H  16.8717440587  3.3392492955  23.5410081178
O  21.7969734360  8.0082422197  25.5528506643
H  22.1241147946  8.1133629763  26.4393002539
H  22.3095118296  8.6043904764  25.0418083998
O  16.3069443048  32.2260380442  27.9620312928
H  16.2912106544  31.3142250831  28.3545894895
H  30.5625065942  0.6079095556  4.2195080899
O  9.5844267441  30.5397045055  32.0272616173
H  9.3775097465  29.5875362318  31.7256439900
H  8.7497996649  31.0291237374  31.9199023026
O  20.3112670442  13.2068319960  32.8385240407
H  20.8882155143  13.9632084689  32.5141873531
H  19.7314611778  13.0573735601  32.0778875216
H  11.2165431381  18.8332566800  27.6850970038
O  24.3921650267  6.3521585888  27.7108930540
H  24.7280877156  6.8594928799  26.9334507318
H  23.7666791510  5.6661481280  27.3934119124
O  17.4777769751  6.9590635263  30.6792467007
H  16.6533412437  7.4184679172  30.4722703564
H  17.3243069728  6.4716823292  31.5116050972
O  1.7344266364  35.1383861196  24.9748608847
H  1.9155740248  36.0120467818  24.5610567078
H  1.9713640810  34.5651118806  24.2493834803
H  26.7355026274  3.9556137225  25.1142932880
O  21.5121473303  35.1846424388  10.3552031529
H  21.4836814454  34.5424188799  9.6084143034
H  20.6308550049  35.4982830428  10.6120273710
O  21.0562877423  6.7208474446  33.1014322769
H  21.8319214487  7.2359221036  33.3796175237
H  20.4538642929  7.4916052539  33.0782859515
O  12.6654958621  2.6868758526  35.5839656253
H  13.2965625874  3.3276142621  35.8632654190
H  12.9263007753  2.3646686321  34.7166795481
O  17.8897309947  9.1062123912  3.0948635049
H  18.1208659774  8.3515287648  3.6545356122
H  17.8461077935  9.8219354042  3.7400112150
O  1.7570248295  1.7890608078  26.2256067051
H  1.0505775914  1.6964186772  25.5839933530
H  1.7484217865  2.8103144851  26.2026522825
O  12.0954497446  3.5827711841  32.4612384465
H  11.6028431564  2.8516188488  32.0812035335
H  9.6320221763  27.6734393111  32.5245705572
O  23.2684305624  10.1121141773  16.3976644069
H  23.1941008020  9.4431918081  17.1538374857
H  24.1874702010  10.4328956252  16.3391337670
O  15.7218593869  6.8506061508  26.4706623215
H  15.9791771629  7.7664119264  26.2738382119
H  15.1457763948  6.9105490248  27.2067891748
O  29.8475033478  18.8671678938  25.6769086385
H  29.6132415530  19.7658058555  25.2989666565
H  30.0940986066  18.9562588886  26.6621771707
O  2.8330627092  35.7695377203  31.0511949203
H  2.6669258514  34.7833000824  30.9212098696
H  26.0095021441  4.0119781051  28.9005613478
O  8.4579610095  8.4479825452  32.0764998102
H  9.1242033130  9.1455626411  32.1444499169
H  8.9628405892  7.6459987141  32.1730064345
O  26.3152672868  4.4809598690  17.6787020804
H  27.0153870035  5.1558865977  17.5171273819
H  15.3855050473  13.1836559124  24.9879488703
O  25.3416095355  3.6789896645  0.6657189455
H  26.0437176540  3.0881170856  1.0293473391
H  24.8958269080  3.8872798252  1.4948420471
O  12.9057595728  9.9314439816  25.0278959283
H  18.5395700658  5.5824822477  0.0314068983
H  13.0199071946  10.3698174785  24.1355799141
O  14.9521495900  3.5393728688  26.2609521308
H  14.0012226159  3.7565576660  26.3033484495
H  15.0193539721  2.7177048167  25.7663134698
O  17.7165715734  4.7891904873  28.6444341975
H  17.7988713156  5.5380783319  29.2859612055
H  18.5193282154  4.8731362317  28.1034772592
O  13.2766529892  14.3420137234  23.3672974556
H  13.7445150000  15.1275124952  22.9400722123
H  14.0195819481  13.7351799695  23.5584946352
O  30.3752477991  33.5261462828  22.9734709618
H  30.2010286553  32.6211226917  23.3144723309
O  18.9423312990  29.4188952769  37.2211089367
H  18.6876754825  30.1637277471  0.4910920632
H  18.1926334991  28.8051432239  0.0570426003
O  14.1375434311  10.9262164339  2.3658539754
H  13.1194780391  10.9605219435  2.2965087666
H  14.3442024308  11.2764046860  3.2782217433
O  20.4861448074  10.0190039376  2.5655654219
H  19.5971810235  9.6281723839  2.6635732612
H  21.0769056989  9.5143486878  3.1305503273
O  18.8021374862  16.2370218080  26.4434868893
H  9.8884962314  33.7746482174  33.6507067223
H  18.4236884125  16.0146056106  25.5693811122
O  20.0308403598  36.8850307431  30.7112118522
H  19.8965663621  36.1843579150  29.9758565525
H  19.4824951605  0.3672379492  30.4737654036
O  34.8653855832  5.0350148352  17.6915486446
H  35.2154750114  4.7047811291  18.5413468586
H  35.5252124099  5.7213056107  17.6015132582
O  25.1507349591  0.1542160880  3.0026481919
H  25.2129527433  0.0221290372  2.0460906421
H  24.5011333816  0.8518668509  3.1176607222
O  22.7715095157  12.7681258064  4.6410131460
H  22.5404900445  11.9451621644  4.1809164702
H  23.7309290625  12.8146978735  4.6496766189
O  15.5488114603  19.4083505550  22.9955186885
H  15.5996298461  18.6034232170  22.5092088970
H  16.1889752834  19.2307913327  23.7118415928
O  19.3711054193  14.1685127013  21.2391124152
H  18.8214912113  14.6248082900  20.6071154635
H  20.2379341369  14.5828018842  21.0439500838
O  18.7533337697  7.2779597657  4.7039474216
H  19.1243440699  7.5474789926  5.6216828179
H  19.3271324647  6.5841221784  4.3087277392
O  18.0533187392  2.2445526978  30.7251436599
H  17.5658857086  2.2392848685  29.8995159927
H  18.2899203225  3.1842395383  30.7781080542
O  19.6313379252  5.4441294296  26.7996697172
H  19.7420081271  6.4103739026  27.0174636196
H  20.5409692277  5.1004644965  26.7777015136
O  22.0726375295  5.6586685848  12.7271771252
H  22.6894984032  6.3480260657  12.3382731947
H  22.2204245086  4.8921782845  12.1583535171
O  16.4008262315  1.7514920650  32.7012481369
H  16.6415796732  2.0443452579  33.5587981790
H  17.0692884122  1.9106172070  32.0093834581
O  22.9160680018  7.5976949204  29.6181947016
H  23.4872647834  7.4737538138  30.3796365063
H  23.4442860286  7.2398169557  28.9085746855
O  16.0705552198  36.8561018503  17.3079505000
H  15.8379495451  35.9640662053  17.6284429621
H  17.0649571054  36.8481121353  17.0490714166
O  21.6628787795  33.6496716000  32.7834434607
H  21.9407159505  33.6399400697  31.8114399318
H  22.3351144061  34.2142822537  33.2604046917
O  28.1880861163  11.2578047903  10.3693874999
H  29.0926309161  11.1728973741  10.0879619602
H  27.6696456055  10.6975742269  9.7595673941
O  16.8423912062  5.6914437573  33.0856470469
H  16.3323289438  6.1288099286  33.7635789110
H  17.6724562506  5.3343823973  33.4422595392
O  24.6590619805  16.3413636346  27.9122474721
H  24.7630520550  17.1908376100  28.4310180485
H  23.9912182368  16.6561597661  27.2700225701
O  12.4669338112  7.7051417424  0.5712070332
H  11.6852449798  8.1490100917  0.9648959772
H  13.2500149019  7.6887179442  1.1491546557
O  11.6165277613  1.1371910743  0.3265119188
H  11.9213534664  1.6769206791  36.8047333386
H  10.6733970603  0.8476196688  0.2526518668
O  6.1231972569  7.4806885691  30.6476680174
H  6.9970709519  7.6887421074  31.0407852994
H  5.9096220783  8.2860899640  30.1951178562
O  8.0813615244  6.2439806121  24.3392282006
H  7.8109907157  5.3032585417  24.2549054619
H  8.8545674233  6.2825361039  23.7626721572
O  8.0435528045  37.1473275337  23.6699205520
H  8.6724187956  36.7261205769  24.2540174691
H  8.6377174765  0.4424577801  23.0604386239
O  25.1812795299  1.0266445449  31.8468457787
H  24.2287761042  0.7700630080  32.0579359676
H  25.6172201567  0.1487882345  31.7663233375
O  15.3558211880  19.7211681921  5.3651934440
H  24.0225394043  17.2001971706  31.9738643498
H  7.1224001230  13.8658518363  14.2805543084
O  27.8507130336  13.1116098487  28.8006717160
H  28.7666649916  12.8195575820  28.8291004945
H  27.2713036035  12.4503146488  29.2414169784
O  26.6135064424  11.0331954995  30.2838577275
H  25.7856357940  11.2376775958  30.6916148383
H  27.2043947629  11.0822406521  31.0478414163
O  22.3190484369  3.1446666204  8.4363959626
O  14.6857378565  30.7559280444  15.0264776822
H  15.4528176763  30.8585106669  14.5228428275
O  18.4749519033  19.6632706330  4.6876195514
H  18.3227164764  18.6789878563  4.6692308709
H  18.6148070661  19.9451809180  3.7395595816
O  11.3362350956  17.0518465949  33.3686693959
H  11.4160106731  16.8488000634  34.3204212226
H  10.5019344348  16.6166028116  33.1974070897
O  24.0642514912  19.2219479437  11.0937490580
H  24.7837330625  19.8484540795  11.0962651456
H  23.1747242518  19.7218976241  11.0370672827
O  24.7940662411  15.3841274609  5.6566480877
H  25.5902493940  15.7994574585  6.0253985252
O  5.8847166749  10.4962707152  5.7988154116
H  5.1624305111  10.0273137230  5.4263311538
H  5.6827571522  11.4337943446  5.6735759353
O  26.0453302165  23.2530741392  8.9159129945
H  26.0710787319  22.6872665109  9.7919241882
H  25.1729484284  23.7076033944  8.8292619769
O  13.3998051139  14.5570849773  0.6156937482
H  13.6816272851  14.5894970535  1.5087961731
H  12.6725909553  15.2371234310  0.5138355827
O  3.1612095457  14.7382645852  3.6508209632
H  23.1429926085  30.1741384276  2.6665490421
H  3.7288804480  15.4440629272  3.2560852732
O  11.9581820135  16.7992763709  15.1975713685
H  11.8039772559  17.7064560014  15.5480605595
H  12.4917646260  16.9664830424  14.4220807678
O  8.1430408773  28.5853043732  25.1120193725
H  7.6333365596  28.8972463221  24.3905815429
H  7.7438667415  27.6962801256  25.3407103628
O  18.2949554021  14.2055331064  4.7108757010
H  18.8766476180  13.7286996451  4.1161385950
H  18.8157700304  14.2523369682  5.5341241494
O  17.6262788294  17.0758124134  5.6367310401
H  17.9545164310  17.1400858135  6.5575409868
H  17.9995327467  16.1754601104  5.3869798156
H  20.4056897772  25.4649463833  16.1591098207
O  8.8471973022  25.1955122986  21.8516319032
H  8.3814764696  26.0569111703  21.9106298309
H  8.8589241667  24.8181879450  22.7336112825
O  14.5817893461  19.7738949459  10.8137409469
H  13.6883917343  19.4049450805  11.0415854294
H  15.2156695280  19.0217612718  10.7778522315
O  19.4685566610  10.2544378713  13.2272851655
H  20.0305400336  10.2709027527  12.4410334310
H  20.0249680590  10.4858298983  14.0182252408
O  15.7599449819  15.5345619397  2.6015025945
H  15.7078235536  15.7551306416  3.5390453977
H  16.8318267143  14.2229865259  18.7672660389
O  25.7410449159  27.1643749252  9.0421205317
H  26.1790334170  26.8585797157  9.8265508603
H  26.1270381479  28.0768084719  8.9517906688
O  21.3541431866  27.5204944050  1.5274121888
H  21.8184990003  28.3947999719  1.5695786093
H  20.4837031487  27.7046746149  1.2833394555
O  22.5391282124  16.6456955860  36.9716060987
H  22.9974815726  16.8952932735  0.5285776823
H  22.8279133947  15.7624674743  36.6267343668
O  16.5034288808  10.5423962560  10.0818326644
H  16.9827203878  10.9372077262  10.8274347309
H  25.0577298990  13.1620502553  10.1346566542
O  6.4980637781  23.3414775245  11.4032551085
H  6.6307328274  23.9572728172  10.6091294230
H  7.3869045938  23.2587374981  11.7504469736
O  19.9172043637  12.7747361002  3.0852211384
H  19.3758197513  12.9829559133  2.2831868043
H  16.4592013924  13.6961721641  5.2761793418
O  28.0746624611  13.4698268134  12.0468091560
H  28.0390801355  12.7404392013  11.3660607482
H  27.2023581216  13.9618342148  11.8942822483
O  18.9615739886  20.6641624891  2.1112300996
H  10.8261861750  18.9940734190  17.5074144592
H  19.1115889108  19.7931677897  1.7783391036
O  3.6327015779  11.5163634420  31.7662588216
H  3.6280574869  10.8489758723  32.4457926917
H  2.7098574845  11.7238049447  31.7501848255
O  15.2115066094  8.2771714659  2.0879114286
H  15.7912337662  8.3860759849  2.8737004899
H  14.7999724127  9.1354233819  2.1677873698
O  15.3668766130  21.1562267048  13.5922384573
H  14.6064200543  21.5332159778  13.9615231165
H  15.3844636800  20.1744989797  13.8436403000
O  22.1483751179  13.7509337226  14.5321561179
H  23.1170482330  13.7007735246  14.5432316368
H  17.2776585517  31.1166554138  4.0634828227
O  23.4104926865  12.9973583290  1.7294603013
H  24.2551879457  13.4047293263  1.7343682916
H  23.1407302565  13.2351746433  0.8193573338
O  8.3469747564  23.7490300383  8.1751837212
H  8.9906481106  24.0276706609  8.8365385153
H  8.9190291720  23.8279105280  7.3629839346
O  14.8262040792  13.4193829247  15.6584683480
H  14.5470135813  14.1156161483  16.2977013458
H  15.0712016439  12.6661923748  16.2142880976
O  15.6969248951  27.2622702296  2.4579452894
H  16.4744028715  8.9356794509  15.2716233634
H  15.3109110369  28.0630802155  2.8190291132
O  17.0670747559  17.1726351232  0.9225155927
H  16.5686086338  17.8648330385  0.4890124326
H  18.0003168977  17.5658821463  1.0080599886
O  15.6258545548  19.4698830204  2.4261840386
H  14.8427177045  19.1306655907  2.0341763745
H  15.6377388796  20.4044289465  2.1997882671
O  18.1098825878  23.3381124660  14.5230650022
H  18.2965216228  24.0751589206  15.1647003358
H  18.8409310701  22.7220350283  14.3849244162
O  8.1736142212  8.8851716395  9.6689016156
H  8.6476452574  8.3144334237  8.9812269177
H  7.2895003166  9.0535789554  9.1478104868
O  19.7207836793  23.4839462891  1.4865346666
H  19.7691692196  23.8403006888  0.5682596146
H  19.8936781965  22.5655284782  1.3230039787
O  35.4581843979  14.5674384802  32.9468974380
H  35.7373089295  13.9620731962  33.6538993757
H  35.2013013789  13.9276276008  32.2435959032
O  26.9098076642  18.0577800142  15.2113316201
H  26.2907840577  17.3257444464  15.2657963687
H  26.3302118743  18.8399857696  14.9157554890
O  19.1225210428  15.1126758208  29.4104620060
H  19.1630154755  14.1892109378  29.7468262017
H  18.9804954863  14.9711232076  28.4525300840
O  16.0222191248  20.1900411254  30.9133482504
H  15.6421538855  20.9945726018  30.6805776224
H  16.7604707199  20.1612324798  30.3351396822
O  9.0718170522  18.0402967940  8.8308460922
H  9.1839009160  17.0357260651  8.6073461619
H  9.8344229595  18.2820409434  9.3372675680
O  20.2012874213  16.8677589238  11.5471807140
H  20.2753318312  16.9050706195  10.5748295084
H  20.6591451820  16.0905908500  11.8590413215
O  16.5438134503  13.1752920712  8.3575446705
H  17.4366868565  13.5036142091  8.1877236827
H  16.2337348201  12.9844394255  7.4705949154
O  11.7231651842  19.3637977512  22.7793776483
H  12.2851009830  19.7738882482  23.4091688707
H  12.3108866125  18.9069896247  22.1710358718
O  8.0618475484  1.7428772875  32.2198697603
H  7.1499852381  1.4118362448  32.2286570739
H  8.2362972486  1.9512694444  33.1500987738
O  9.8603276649  13.1447127059  31.4372737389
H  10.7971641038  13.1804299112  31.1211310414
H  9.2473492111  13.6529611922  30.8271107225
O  17.5198838264  11.9988807255  12.2342138861
H  18.0811413693  11.3338744327  12.6700853365
H  18.1862267582  12.4931410415  11.6899199300
O  11.7193763681  17.8289276841  6.7431615925
H  11.4657582768  17.2597449263  6.0399051482
H  12.1031630632  17.1656728174  7.3819959241
O  11.2364169983  11.0674363716  2.1474152263
H  11.0090656120  10.1429114215  2.0766753796
H  11.4259303924  11.3716163567  1.2203619653
O  12.6961420691  24.7596041457  13.5097975954
H  11.7830358853  24.5939176017  13.7346707885
H  12.6996850388  25.7130613786  13.7941081747
O  14.6395850735  16.4398729535  5.9202443943
H  14.0058447350  16.9791011935  5.3900926526
H  15.4715110728  16.8555963513  5.8822408549
O  19.2159812722  4.8771180914  33.9387178995
H  19.6013746756  4.0865969174  34.3945488485
H  19.9193123082  5.5588782894  33.7798782877
O  6.4495644130  22.5696508226  14.1608824580
H  7.1823140854  23.1950157606  14.4705969199
H  6.0733920318  22.1515214288  14.9811733846
O  26.1836427127  19.1961221358  3.6393880278
H  33.8636398288  15.4443222686  35.3538342951
H  13.3544713140  15.7046658016  8.9172601116
O  30.8631224303  6.8048508454  6.7414958632
H  30.6269722898  7.7522221222  6.9364843458
H  31.8711680316  6.8102207228  6.8733086488
O  21.5984085866  15.8124977702  20.5714904366
H  8.0444070085  16.0640953769  16.9317576639
H  7.9505496036  17.1692484010  15.9609161252
O  12.6991421267  29.9928020320  22.2967298962
H  13.2108353893  30.1687432845  21.5290171460
H  14.9893000635  30.2424966522  15.8427688104
O  14.3074994012  28.3323741979  24.3897997109
H  13.4480770411  27.9828146405  24.1658386370
H  14.8365141308  28.0737715365  23.6046830281
O  24.9103194192  13.4415890825  14.3914747900
H  25.0546845487  13.8537854056  13.5547249634
H  34.2349137824  22.8844162025  7.5765369933
O  19.4119956513  19.0227638170  21.7664218052
H  18.9661930192  18.7042126911  20.9557133621
H  19.4594945957  20.0019258192  21.6204480026
O  23.6199201101  23.5650128472  16.4169776475
H  24.4200678659  24.0211847306  16.1674632166
H  23.7926465459  23.3939150079  17.3757898822
O  24.1898287720  17.0103084064  20.1238082921
H  24.5404412250  16.6487679969  20.9594043083
O  22.9793205502  17.4408050359  25.6298953237
H  23.4024192143  18.3300178827  25.6090058220
H  22.0883835596  17.6245632980  25.9124072414
O  11.3303709050  13.5056598017  17.0863981270
H  11.8544319455  13.2120349331  16.2748313746
H  11.5013903963  12.8213374976  17.7743146775
O  19.2026778445  14.0792048492  7.5308922743
H  19.3635409719  14.8561573016  8.0552033256
O  26.0253237239  17.9985924068  25.6393975168
H  25.5607450890  18.7905035506  25.2131907202
H  26.1977712293  18.2790182449  26.6321944285
O  20.8232113801  18.1044598942  18.5320162314
H  19.9705115846  18.3537716413  18.9006696579
H  21.1563225635  17.5376387649  19.2555630789
O  15.8256186761  18.5408267785  14.1690044700
H  16.5216869380  18.0688215218  13.7336918432
H  15.9119620436  18.1312386347  15.0789566519
O  13.8739058437  15.7008638528  17.1099149506
H  25.4987311927  25.0141560273  25.8586367549
H  13.3516747798  16.2596728452  16.4887104438
O  32.9657283885  27.6905215837  22.7122780490
H  33.5963261295  26.9327040988  22.5433927976
H  32.4891903777  27.3414394389  23.5021595233
O  15.1534976080  11.1793462353  17.2741199174
H  16.0197012542  11.4875009482  17.5779791702
H  15.4202360024  10.4682980291  16.7009587331
O  16.7437022248  13.5244735579  18.0611057287
H  17.3384091423  13.9001320547  17.4446903169
H  7.4102791469  26.0640857605  29.7803752658
O  4.0129684885  27.3673863050  15.1269822730
H  4.2897406195  27.2303403064  14.1790106358
H  4.8279976446  26.9221332182  15.4934768010
O  34.4601522430  10.5447271657  7.8742494157
H  33.8975804308  10.1684700533  7.2151976972
H  33.9500168418  10.3941853557  8.7558319893
O  29.2430099808  17.2260628054  18.6849461971
H  28.5332005669  16.5639039649  18.8460085156
H  29.2408845312  17.8755248265  19.4543332613
O  24.1037259763  21.4448657365  20.6686270871
H  24.1128499963  22.2699300536  20.1765553886
O  24.1871798456  25.5164991488  22.5405412135
H  23.6983002796  25.3523243233  21.6934615890
H  25.0395187411  25.7876535173  22.2003097583
O  17.9245139294  15.0994044630  23.9279176489
H  18.4451138883  14.7617250876  23.1510930294
H  20.0962977337  11.8420350993  3.0733050884
O  21.6536453858  23.4451283619  11.4521131945
H  22.5980593008  23.6986534518  11.5213378457
H  21.0607332490  24.1113737065  10.9748530981
O  11.5257349517  19.2167298651  16.8697451554
H  1.8204230374  12.0159494205  35.4723784091
H  11.2557022798  19.8844481308  16.2517224532
O  19.9267728852  19.9543813267  7.1696116768
H  19.3383280947  20.0581310762  6.3727638610
H  19.9951403298  18.9814629211  7.2160521480
O  16.6740326434  20.8206209477  20.4025928216
H  16.0340311237  21.5132238020  20.2405607433
H  16.3534736834  20.3661025673  21.2128750360
O  28.5798157379  21.4260156618  24.8664960497
H  27.6505868657  21.6241208120  25.1785492882
H  28.5193810168  21.1653815612  23.9219746129
O  24.6481861322  12.5149910682  18.7930064445
H  25.0162919141  11.9715192923  18.1127482114
H  8.0384866531  27.9880551345  11.9025613898
O  11.5267656217  16.6136651904  23.5756651249
H  11.7276485777  17.5730497883  23.4153525683
H  12.1759453455  16.4697603866  24.3180391839
O  16.0663612362  12.1742240877  32.7468688229
H  17.0054657233  12.2257426985  32.4660921367
H  16.1496501801  12.5513482133  33.6535863667
O  24.1192774219  20.0771338387  25.0031358705
H  24.5065872625  19.8699165065  24.0922410275
H  24.7059288384  20.6711998686  25.4933030292
H  16.1719791435  36.3584008018  25.8156088946
O  28.7162868359  22.1433265127  1.9537515562
H  29.1867913756  22.8502190182  1.4438916524
H  27.8045827109  22.4925044941  2.1300696214
O  18.2130162725  25.6134455316  16.0587271981
H  17.5447979385  26.2243002674  15.5929232866
H  17.7812136792  25.3670589821  16.9250067315
O  19.5496206225  21.1221051189  17.2230543841
H  19.3507007996  20.9047814437  16.2796132963
H  19.1103324019  20.4353912330  17.8108584402
O  12.4139140662  12.2082949178  15.0470138046
H  12.0440002537  12.3547531527  14.1688531559
H  13.2855771807  12.6021599314  15.1603174987
O  26.9029542230  25.9854839560  11.4602390776
H  27.8576774653  25.9173069341  11.3152551109
H  26.8750502857  26.6853995923  12.1295711535
O  16.3839573047  22.9674041454  26.8963305075
H  16.0562938713  22.9639769230  27.8365105003
H  16.9428935881  22.2035421974  26.9263096667
O  14.0078550958  27.6309999665  20.6019321805
H  13.9204154822  26.6948656266  20.4868052094
H  13.8207892774  28.1158506251  19.7611054310
O  15.8330662930  24.2823294787  22.5675308161
H  15.2775990262  24.1754657703  23.3477666473
H  16.5762666620  23.6807623095  22.6683777690
O  4.8640154259  15.5807834641  26.3978615829
H  4.2233768784  16.2578963280  26.3781101579
H  4.2728987468  14.7927574366  26.3642176929
O  1.2232549203  25.2149525552  23.2133359426
H  0.3647640169  24.7204430487  23.2646340018
H  1.9757793628  24.6774968625  23.5535518035
O  18.7674544090  28.6376424863  26.1171396994
H  18.8921173675  29.1516021146  26.9734903321
H  17.8837971677  28.2049525991  26.3105268007
O  18.3793201400  15.1313905123  16.0415183892
H  17.8790186351  15.9386487628  16.3769329727
H  17.9372333985  14.8133102749  15.2168786447
O  22.3341132698  26.5393651588  27.6008396760
H  23.1433847466  26.5050207115  27.0250761107
H  21.6888790590  26.8701740231  26.9130180149
O  29.8437201998  11.4417001754  26.3855664862
H  30.6821070387  11.1899456665  26.8203723879
H  29.6083669243  10.5801471652  26.0576684450
O  16.7463603422  17.6154570650  28.2740984486
H  16.9467133262  18.4470448331  27.7774716831
H  17.1655737729  16.9986889461  27.6590559168
O  22.0224107186  23.2694629615  25.4878106493
H  21.2241492014  23.8646864809  25.4201027711
H  22.0411865130  23.0862621006  26.4401077257
O  4.7993522463  22.1425063615  21.4268382876
H  5.6157626216  22.5875524658  21.1775123964
H  4.2983912896  22.7048672874  22.0040085133
O  6.2504706984  24.2092519534  28.1667479496
H  5.8698542550  23.9325761081  29.0141479159
H  7.1665696898  23.9393963402  28.1824543161
O  11.6427655712  29.2753508607  29.2946641729
H  10.8163735338  28.8946712920  29.5515598955
H  12.0937037035  28.7025486347  28.6787760296
O  6.8183066684  31.5593421753  8.9988223714
H  6.3557463429  32.4019838279  8.8349539851
H  7.6897603285  31.8124359000  9.4163731823
O  13.2535825630  0.4896785499  16.2274089862
H  13.6016072509  1.3150785145  16.6443162441
H  12.3265583682  0.5033719508  16.4678814256
O  17.4910546212  15.8457092651  19.8037952112
H  16.9099093192  16.2249389501  20.4545476229
H  17.4900885688  16.5270699993  19.0892066792
O  29.5473419445  20.3760123009  30.1851283199
H  13.6002677344  15.9638251424  7.4324784089
H  19.2166049423  21.7330699837  32.5173756992
O  20.4327892473  22.1303051447  13.6057301037
H  20.7365113421  22.7384440711  12.9161142395
H  21.2722337501  21.7970169579  14.0564644611
O  15.9340497265  16.9120602561  25.7379293088
H  16.6047958741  17.2195960697  25.1282095468
H  15.8255157735  15.9463115322  25.6274455382
O  25.9666294758  25.8953390417  32.8869316799
H  20.3178667751  6.2797947882  31.0123189231
H  21.3282569632  6.4470803251  29.8703972445
H  12.4445719114  30.8432032719  22.6389440962
O  12.6777208091  22.3225941215  32.1591395476
H  13.2306738580  22.6733942984  31.4551204800
H  13.3779223659  22.0910622097  32.7812436199
O  29.9043039654  1.1677686483  4.6054564673
H  29.9414370128  2.0389432527  4.0669711119
H  32.1036822966  32.2113473706  19.8216202568
O  22.5856733201  14.1614591013  36.2856707468
H  21.6899333047  14.2408387248  35.8486579528
H  23.1305937041  13.6538011144  35.6939302596
O  27.1544112384  21.2969551962  22.2222389970
H  27.0889463022  21.7864860747  21.3798686813
H  26.2706267766  20.9518632010  22.3417423309
O  19.5644897773  28.8246910431  4.5190302102
H  19.0312334525  29.5469849739  4.0793104512
H  19.0215727189  28.0360287688  4.5304431334
O  23.9856799895  27.5894958889  34.1820212920
H  24.6734915702  27.1263270801  33.6727600650
H  24.3484934778  28.4943730626  34.1979389217
O  23.3576774531  20.5224051117  32.9507874752
H  23.1298578428  21.4477991629  33.1214728830
H  24.2733928741  20.6414924910  32.4905914002
O  22.7893515628  23.0650461976  34.2190478416
H  22.1900461628  14.0587490275  25.8727377382
H  22.0992120081  23.4108709631  33.6114925547
O  26.6036278504  25.6807354288  36.5927759582
H  26.1569776915  24.9862082849  36.0068249391
H  26.0702200594  25.8437608541  0.1092411126
O  20.4684628319  15.2748413115  1.4611609230
H  19.5262113385  15.0886322578  1.2334449924
H  20.7594241296  15.7382212544  0.6711012424
O  23.2033076059  24.3165309178  8.5939161728
H  22.5856828816  23.6023592516  8.3483810336
H  23.5423249073  24.2747185239  9.5263978299
H  33.2064896106  29.7395636360  30.3011911577
O  31.2834240214  32.0998858377  29.3899921191
H  32.0318505661  31.6375495837  29.7655024071
H  31.4171495206  31.8960609821  28.4146277652
O  12.9754218658  14.5487686704  34.4707712513
H  12.5199431328  15.2238571809  34.9676678472
H  12.6206905137  14.4370526040  33.5936252964
O  23.1422055767  34.4786740513  12.9451342775
H  22.7643765646  34.4457039914  12.0609862363
H  22.5653795608  35.2002733550  13.3098823142
O  7.4732626552  26.1236783066  30.7514025544
H  6.6076344787  26.1727353224  31.1658466078
H  16.2686391132  16.2145932239  2.2194530325
O  32.3659226589  33.8610588495  25.0608846120
H  33.3197433083  34.1699909204  25.0081740964
H  32.4607175079  33.0057350476  25.5808513719
O  19.5708993293  24.8983786544  24.9543382771
H  18.9405086009  24.9673027509  25.7181128880
H  19.1960725822  24.2313507988  24.2724404552
O  19.6043385103  25.9545392635  32.2436734410
H  19.3060450954  26.3500405101  33.0835991242
H  20.4823576149  26.4168013009  32.2152521699
O  8.9949983607  9.2795313829  36.5600662326
H  8.1055648801  9.2785996549  36.9674848538
H  23.0725987221  3.5495263592  3.9859872851
O  14.6245487707  20.5191428902  8.0725203090
H  15.5042634212  20.0012750389  8.1295080009
H  14.3079538314  20.4035465840  8.9579141953
O  15.5138666966  13.5840013577  5.1263202553
H  15.0250786479  14.0878867362  5.7679239304
H  17.0978951374  15.5428791054  23.5123417950
O  22.5413274773  17.5247031248  32.8533511080
H  22.6396721708  17.9237653736  33.7653576469
H  22.0564880670  18.1540457695  32.3324558271
O  1.9489268845  12.5075582129  34.6427307318
H  18.2161251176  21.0185337954  1.5051434457
H  1.0251033516  12.8458274833  34.5002620409
O  22.2575990284  14.2777196278  18.4593699798
H  21.8787600671  14.8344203658  17.7445039593
H  23.1418415399  13.8985505691  18.2239175010
O  21.1918416767  12.0527577493  29.0467810716
H  21.1025849190  11.5279027548  28.2369756951
H  20.3046037217  12.1460880807  29.4004836350
O  24.4594079384  29.4810670624  31.4150138380
H  25.2722139112  29.4883395500  31.9517934590
H  23.8278583754  30.0363702112  31.8767090101
O  26.2225150290  24.2613193678  28.8065973362
H  25.9987770726  24.9598859384  29.4461755340
O  11.5422280457  27.0802228332  6.9513903489
H  12.4484075768  26.8562789639  7.1691565602
H  11.4514311767  27.8644035759  7.4629011863
O  21.7478237864  27.9304219213  32.5185455986
H  22.6406945707  27.8805828337  32.9227202738
H  22.0537127400  28.0092696384  31.5934815084
O  25.5397155871  30.0782490213  34.2617522668
H  19.3568063890  17.0832898008  26.2734152569
H  26.4235199602  29.6674590821  34.1263134598
O  12.6609684174  13.7273064072  30.8915850520
H  12.4502821529  13.9788891315  29.9703588558
H  13.3482871938  14.3920686270  31.1527192050
O  18.3585506461  19.0899564881  18.9818264546
H  17.8050480990  19.7856713520  19.4723379568
H  17.7530437003  18.5509409681  18.3870914481
O  9.2764956601  14.2366454493  33.8887669517
H  9.1503366632  13.6037547002  34.5956695938
H  9.4869370739  13.7292813755  33.0833119198
O  16.5622192670  17.3227569255  33.3562423096
H  17.0365312470  16.6294488518  33.8154839555
H  16.7869451671  17.3049503403  32.3918483410
O  24.0947024796  30.9494988070  27.9758709641
H  23.6872994025  30.1493866101  27.6204683285
H  23.4483371883  31.6608343658  28.0036512518
O  13.1151928173  19.5259146552  27.4953822623
H  13.3294172230  20.1639426390  28.1926720076
H  13.6106659744  18.7275746462  27.7843147776
O  31.8486009296  18.3833994463  21.4704320538
H  32.2531447309  19.1707839211  21.0697930322
H  32.0086076329  17.6697202252  20.7696993277
O  19.8310840809  1.9444929500  28.5659856261
H  20.4983263588  2.3520007570  29.1322542200
H  20.3346436832  1.1176073060  28.3147171922
O  13.2470807099  19.2254253791  34.3430336834
H  14.2659816931  19.2088883481  34.4617828251
H  13.0637033609  19.9461614847  34.9934479062
O  20.4932338867  18.2418972694  26.4003893773
H  20.3652215158  19.2253362570  26.4000136530
H  20.5981049130  18.0196648652  27.3324355356
O  22.5088579999  20.0014228839  29.2342870573
H  22.0416007727  20.7967501794  28.8229112851
H  22.0404221544  20.1478141437  30.0407155362
O  19.8249968264  18.2433992416  0.9124604384
H  20.4581236490  17.8622816617  1.5337414145
H  20.3332658444  18.3565483721  0.1215231998
O  22.3656304831  14.7950616175  32.1548106717
H  22.7785814749  14.8967114461  31.2540413935
H  22.3095051319  15.7159821238  32.4926603600
O  17.8123719654  15.2968604869  35.7935224544
H  17.0320621002  14.6727109650  35.6631847342
H  17.5465555949  15.8043917151  36.6333788570
O  17.9177100756  13.6771030157  1.5111518319
H  17.2624804701  13.0721549901  1.1347907762
H  17.3527775979  14.1397854415  2.1608283535
O  15.7019615276  22.0908967667  33.2623594717
H  15.6297983191  23.0025855068  33.6476221994
H  15.8000128619  22.0928967807  32.2528206584
O  15.7757855350  14.2908897092  26.8474668471
H  16.2459561084  14.8486989963  27.4724341227
H  14.8112949221  14.3664552029  27.1162807279
O  35.2237592646  19.0041279131  27.1453803503
H  34.4032493852  18.5093572617  27.0870698925
H  34.9202499841  19.7592336571  27.6719332001
O  20.6149599024  11.8306624864  24.1557145104
H  19.8214923036  11.4148707007  23.7597347353
H  21.2909280422  11.5959754478  23.4977286519
O  16.8460931036  16.5777278782  30.7884219244
H  17.6741541891  16.0944847138  30.7063352115
H  16.7444848785  17.1104831726  30.0190786362
O  16.5967634662  25.5040784042  35.5927654386
H  16.7254743510  26.2914483025  36.1296359409
H  17.2547391667  24.8396822735  35.8749475761
O  1.7422990988  24.5655939209  3.1550877557
H  17.8345987104  21.1786378905  32.3167934628
H  32.9436224803  15.3251135083  34.1377085916
O  23.3346969843  20.2551903876  6.3379071494
H  23.8930503944  19.5768618087  6.7386961947
H  22.6357404483  19.7110508836  5.8970095587
O  30.7436187863  23.2416144833  35.6750563568
H  30.3604563443  22.5645360753  35.0350918705
H  30.7282070991  24.0850125760  35.1515734891
O  27.0009706095  27.8709714084  5.3147360470
H  11.2397552130  21.6388978538  14.3748937534
H  10.7753466874  22.2839862394  15.6773929609
O  18.8461839342  37.1150389592  11.1830846672
H  18.7379544650  36.7724491592  12.0913714887
H  12.4745639435  33.3605371404  1.7540980906
O  20.8638401492  34.3010353234  6.0529101344
H  20.2886216951  35.1119462821  6.1795873419
H  20.3783405824  33.8230782959  5.2885488384
H  21.7433863419  32.5358128006  8.6842299917
O  15.3779453433  34.0737078240  0.0025933972
H  15.4339922564  34.6595079142  0.7879250426
H  15.9545519934  33.4197673143  0.4271455845
O  20.2493674873  34.8235959281  28.9501930070
H  19.5903297291  34.3614846633  28.3145271653
H  4.2102349586  6.9421689674  7.3718158895
O  3.4138151534  24.4172758453  11.1669468399
H  2.6286097329  24.8855400247  11.5292309459
H  3.5139026171  24.8708707264  10.2552496252
O  17.0477366895  24.1040717196  12.2310119676
H  17.7068646618  24.6397610193  11.7257684870
H  17.4035757188  23.9124500535  13.1358565935
O  8.8400246744  31.6046976515  35.2772588954
H  35.7311045763  36.9538244252  4.8918475635
H  8.3446358943  30.7838182688  35.1352438245
O  16.4059226395  22.5811349476  9.1054467299
H  17.3345795217  22.2536900898  8.9919078499
H  16.5209822681  23.5555069928  9.1713732236
O  26.1869436161  30.0665448050  8.0484443232
H  25.2417417977  30.2819452804  8.1818045522
H  26.5472714191  30.3138109912  8.8782838875
O  16.0564780837  31.5195746944  5.3511781627
H  15.6515223624  32.3829954741  5.5778049025
H  15.4605380484  30.8735138965  5.8257415731
O  18.5639177634  19.8752985578  14.5680868419
H  19.2755217801  19.5684967472  13.8679006843
H  18.0107942396  19.1096868312  14.6043698704
O  21.0992531450  25.3467064649  16.7746579227
H  21.6974083356  24.6723779412  16.4070009773
O  15.5763507894  20.4340947733  17.0703206303
H  15.8164465289  19.4885404499  17.2048134754
H  14.7600458593  20.5247882739  17.6184034706
O  31.5594280986  36.5562851220  3.6160533797
H  31.8755460292  35.9752026775  4.3454984039
H  32.3845332225  36.8735365786  3.1315519620
O  27.4834807769  34.1497985712  35.3639685151
H  27.1989430397  34.5040996434  34.5052357444
H  27.7942838926  34.9952410985  35.7427589602
O  5.2447710509  36.8779182267  2.0040918936
H  4.8111257430  36.1637336607  1.5090007964
H  8.6980430555  24.6940570389  13.7975165630
O  16.3099183812  27.8817561575  26.6904592379
H  15.8674769783  28.4475886726  27.3861667603
H  15.6230323587  27.9008286578  25.9798277084
O  28.7852633214  5.8465108418  30.7664555281
H  29.4262531066  5.1222076416  30.9477499894
H  28.0494561181  5.4381312993  30.2863942478
O  15.0469739658  14.9547578124  31.9566973779
H  15.7615904891  15.3881925929  31.4237481816
H  15.3498625819  14.0516468055  32.1779412877
O  36.6573999586  33.4808161692  8.5010380799
H  37.2021575447  33.4653364214  7.6959161639
H  22.8615134839  28.1847297731  5.1638641282
O  13.5522301933  22.8587841361  11.2752143394
H  13.6541897898  23.7883933126  11.5950278600
H  13.2695486061  22.8711558566  10.3416825258
O  35.9423705839  35.2754190684  12.1755682953
H  36.8404326777  35.1765975758  12.5013429231
H  15.6176690333  25.4576689338  5.6697597281
O  25.2820677137  18.4562282632  6.9483301330
H  24.9286382174  17.6786907215  7.3959276738
H  26.2060420890  18.6005866280  7.3375419680
O  21.2656153797  5.8473469495  2.7011291129
H  9.2660539452  36.7363420141  18.6842790503
H  21.9061752831  5.1429430134  2.9023408508
O  23.9240280896  32.9170555575  6.2254995819
H  23.4155703055  32.6172376793  5.4870846793
H  23.9597681725  32.3677181000  7.0137181347
O  21.1442976478  4.5519652919  6.3321875922
H  21.0137243596  5.4558655759  6.7526724477
H  21.9630090392  4.7633557717  5.8241785232
O  1.4593852965  34.0990341848  1.9044445031
H  2.4389536495  33.8824496987  1.7974187084
O  23.5082207500  29.1066196560  11.5434218732
H  23.6792214346  29.7835921825  10.9067953749
H  24.2112529199  29.1487058232  12.1952981005
O  14.7287946870  26.2132495468  17.0499343065
H  14.6899017714  27.2022594034  17.1970298480
H  13.7971806975  26.0584492872  17.0967389400
O  9.5588111323  2.0737096152  28.4704406190
H  10.2951835166  1.9908044962  27.7730951604
H  9.3182017837  2.9900867657  28.5598911000
O  16.1304604871  11.5609544806  22.2394960488
H  16.2628062931  26.9208819861  3.2087693643
H  16.9490837303  11.0155054097  22.1281409830
O  26.0524708903  32.1163492688  36.1925364055
H  26.6548155063  32.8290278257  35.7916717608
H  25.7458746695  32.4762382891  37.0295911948
O  27.1113878238  34.0278908233  7.1915340260
H  27.8800334900  34.6021842444  7.1820207091
H  27.5929692379  33.1780304408  6.9961442629
O  14.9769898709  25.8101449334  11.1660725658
H  15.1030720789  26.7465278146  11.4320790679
H  15.5426185791  25.2722338522  11.7901968030
O  22.9811121514  15.7993965397  7.6339148313
H  23.4498318776  16.2130562446  8.3652170907
H  22.0899783068  16.2252866304  7.6914090923
O  22.2142051457  1.7921002227  22.0216314318
H  22.4042608902  2.6157136071  21.5888784626
H  21.7254150528  2.0208992373  22.8023899035
O  20.0762411851  32.7678765563  3.8468018414
H  20.3290426266  33.0079336811  2.9783167020
H  19.2630258585  32.1962544885  3.7687120958
O  22.5070884845  33.7451930028  35.9232433727
H  22.5089129983  34.0366526362  36.8385989058
H  23.0599626154  34.3621466363  35.4440848394
O  24.7838182279  32.6040478398  11.1302415028
H  24.2045488746  32.1848735657  10.4606555484
H  24.2229843016  33.0479421112  11.7843654256
O  35.7500816157  24.0893194681  13.9641014351
H  36.1477232230  24.8883198385  14.3805152439
H  36.3077044495  23.3242639309  14.3249097932
O  10.5384979080  27.8713884418  4.5834288437
H  9.5799539587  27.7298913527  4.5817436140
H  10.8738846013  27.5490547973  5.4907136500
O  21.2254655226  21.8726766357  4.0459283550
H  20.4794373030  22.0259123717  3.4817604857
H  21.9724200571  22.0183976675  3.4470365900
O  10.7102124498  24.1660763975  3.3992530325
H  10.6797142769  23.1907575889  3.1504889958
H  10.3370437940  24.0857400243  4.3205145893
O  9.8982210829  23.8734200348  24.0793449102
H  10.7096111547  24.2480883578  24.4448398172
H  9.4508560001  23.2712859111  24.7365060564
O  23.8155980566  26.9228368284  7.2256635196
H  24.3166964558  26.8031992501  8.0541807608
H  23.6996379959  27.8636652400  7.0963335422
O  20.4166614894  24.8282322747  3.5391263874
H  20.2305329736  24.3585044044  2.7583315918
H  19.7730055103  25.5200906433  3.7950627854
O  14.0571152897  22.9342749862  15.1612260999
H  13.6626953029  23.5832799377  14.5033338550
H  13.3316505620  22.3903788039  15.4459048175
O  3.3324871899  3.8142827620  14.8050861538
H  2.4652714166  4.1856085466  14.6874981247
H  4.0828883855  4.3572750261  14.4636906415
O  10.1095012036  30.4280407536  12.8788477755
H  9.3918456746  31.0366050689  12.5214445145
H  10.5340007240  30.0107898484  12.1007298929
O  9.2553946545  12.8360961512  2.5439668355
H  9.3936168620  13.4127375766  3.3293313129
H  9.9737760138  12.1616412186  2.5365616165
O  17.1080673487  22.1462427764  6.0018205933
H  17.2701655586  21.1644406038  5.9706646904
H  17.2709054378  22.4326997343  5.1193970421
O  13.8555469446  26.4230735626  8.0861354504
H  13.4960440625  26.0967856340  8.9506049602
H  14.1324163972  25.6498580078  7.5035446028
O  6.7378870436  8.9958017778  0.7211925537
H  6.6592776623  8.7823162320  1.6879519858
H  5.8353624522  9.3322560479  0.5339462614
O  6.6080060015  14.8833460840  3.6923263731
H  18.6322229108  1.3953216665  0.1839007418
O  27.9427961886  33.9813480961  21.5956790531
H  27.1238297536  33.7243579016  22.0939524064
H  27.9161105649  33.3350550250  20.8539520247
O  27.0245091767  29.2322102068  2.6793289574
H  27.2586992851  29.4479354062  1.7733567091
H  26.6982617287  28.3435935368  2.6749222988
O  22.4939526281  27.5644076396  18.4985064969
H  11.5825798225  34.9784429543  26.2041670156
H  11.2977545945  33.6752529079  26.7679937397
O  21.3674806529  37.1069306933  27.6872326664
H  21.1787834653  37.1815286467  26.7465610333
H  19.5455429243  0.5086281203  11.2640167921
O  15.9077781030  9.0424131135  29.9952160628
H  15.2532989577  8.7189043269  29.3745220730
H  15.5224371910  9.6943119591  30.5996945208
O  33.7595065404  22.3144554349  8.2291793880
H  33.0612823778  22.9701325856  8.3585121239
H  21.7808809136  2.8314128098  15.6767423306
O  34.5961226720  28.5072748443  3.0350785912
H  35.3162877960  28.9871566338  2.4730889899
H  33.8402385964  29.0612975550  2.8309557206
O  22.5255714680  4.4760243382  27.2776397899
H  22.3708259109  4.0216992295  28.0910663705
H  23.0729808086  3.8143553731  26.7470965422
H  21.3776486416  1.4921855476  17.4479262565
O  13.2777160486  27.6596013539  27.4735104923
H  12.6295296079  26.9357079911  27.3860408234
H  13.4438895318  27.8514103962  26.5727631188
O  1.8869666839  27.0914684647  4.5581053542
H  2.7389083036  27.4440372863  4.1840521827
H  1.7268048779  26.1830144454  4.1546974649
O  25.4912057530  20.1767306998  14.4301560198
H  32.4265423748  28.1404980029  13.1422425232
H  25.9901161899  20.9169498758  14.7995031386
O  22.6585356681  21.4065187471  15.0017905624
H  23.4628078034  20.8638938172  14.8093189561
H  23.0774707652  22.2475517305  15.3939324972
O  12.8415075219  9.2907088031  15.4222021362
H  12.5389931052  10.2044247536  15.3014752379
H  13.7796231594  9.2406113189  15.2208068742
O  19.5448890537  28.3081794914  17.6705980911
H  19.4622366499  27.4143888283  17.1790017331
H  20.2353671767  28.7186291495  17.1207207851
O  18.3349534698  22.8091696212  23.4408189034
H  18.3794693211  22.1413390175  24.1818138760
H  18.9919891143  22.5914462346  22.7626148685
O  26.3566033651  24.6283833918  26.1241686485
H  26.2832350714  24.4288365202  27.0831348540
O  5.0809006434  28.8405928024  12.5991239218
H  5.2884086965  29.8147144692  12.5491212718
H  5.9433463608  28.4492240795  12.7031765708
O  31.6685420287  28.1682584626  3.0110970386
H  31.7232504714  28.4817044464  2.1045181268
H  31.0722948436  27.4251719448  2.9887406336
O  8.2043646099  24.5992890237  14.5930564411
H  8.7941942013  24.2352816230  15.2385761913
O  9.7928842174  5.0615244383  25.9575000724
H  9.3861552436  4.3441739961  25.3405028695
H  9.3101958571  5.8692444174  25.6231615689
O  25.1325797239  7.6543827165  32.2441649010
H  25.1366454215  6.6689129981  32.3343147453
H  26.0695181997  7.9048963910  32.1982113766
O  19.1031766608  29.6753544454  14.5811519790
H  18.5650173858  29.7956056505  15.3655757966
H  18.5286130329  30.2411388604  14.0602154001
O  11.8310143227  30.5944490433  14.9379290249
H  11.3035413384  30.6525441221  14.1384145571
H  2.0882343342  27.6152232610  18.2433282676
O  19.0569486384  31.0170983555  24.2289005750
H  18.9287534890  30.5532103103  25.0549465836
H  35.7052548584  36.1070866739  12.5604378218
O  0.9864813635  30.8240838606  19.9587429371
H  1.5756061898  30.1003195365  19.6982919233
H  0.8565020724  31.3317737136  19.0972093598
O  9.8408125686  36.5043766069  17.8965563406
H  20.3855170448  30.1524886673  21.1744940425
H  9.1933066429  36.2102783258  17.2570022442
O  21.4524219114  20.5638233810  11.0084494536
H  20.8102870117  20.4328858772  10.3220068406
H  21.4868918962  21.5305357687  11.1923495849
O  19.4963830544  21.8202511653  9.4712364025
H  19.6338484876  21.2425929975  8.6959379693
H  19.6429178771  22.7502537137  9.1743141314
O  12.3100573808  36.6305217584  22.6370421024
H  11.4968423519  37.1910549895  22.7138019823
H  12.5534109866  36.3273603531  23.5132385640
H  12.2965704018  30.0945814743  18.5745482088
O  21.4729513924  33.5036680335  23.3414140892
H  22.2613111146  34.0565076784  23.2771323522
H  20.7937404534  34.0341871318  23.7336432016
O  24.1445841045  23.8334766677  11.4931450627
H  24.7314374367  23.0453938670  11.5013265206
H  24.7048889392  24.6033597399  11.5646177357
O  12.4361100651  29.9565608519  32.1263122100
H  12.9242085611  29.1303048365  32.3873047827
O  29.5279891150  25.6663947676  2.9606864128
H  29.2777202165  25.4359609595  2.0224503804
H  28.6574374898  25.8907026668  3.3110982614
O  21.8893123178  21.1693272404  18.8262813538
H  21.3223540361  21.9208609159  18.5078151299
H  22.6779863283  21.6836931023  19.0954922414
O  22.5049953754  34.3045777869  26.3837828667
H  23.1946691072  34.8447815677  25.9457802931
H  22.7996613311  34.3635477286  27.3321472939
O  22.6097896494  25.2741008668  20.3164483870
H  21.8846063879  24.7340284347  19.9679720494
H  22.5219248128  26.1422227764  19.8910330177
O  18.3631937156  32.1844966800  7.0728646490
H  17.6817670402  31.7776685073  6.4924539266
H  18.4346993737  31.4591965444  7.7047111735
O  22.3035709426  26.6407808680  10.9305712796
H  22.4960229208  26.1641341429  11.7771207633
H  22.9456004083  27.3505338294  10.9754887472
O  28.6714412724  23.5107451601  13.6142915864
H  28.2178932499  23.0476543783  12.8355848223
H  28.2516346642  23.2326084822  14.4718446064
O  16.7401876511  28.0438329178  8.1439870417
H  15.9084891309  28.3112533488  7.8197726678
H  16.7621751488  27.0593814138  8.3304741256
O  14.7629426470  4.5538877921  31.1495821609
H  13.8912237656  4.5579060804  31.5435164063
H  15.3746691805  4.8878241486  31.8175781333
O  2.3975595953  1.8032208454  17.9842048721
H  2.4281253118  0.8451292033  18.2116504698
H  2.6867296683  2.1103361950  18.8317274661
O  17.4781813257  29.9146120793  18.1112736973
H  16.6568354163  29.4998474044  18.4056010543
H  18.2044827500  29.2908565846  17.9553236709
O  1.8615063387  26.0837241322  14.8982318048
H  2.7228418745  26.5202179946  14.9392884538
H  1.0801025325  26.6244608443  15.1533292558
O  14.9643236089  33.7158417129  6.6218445282
H  14.7700432151  34.4553915867  6.0014157784
H  14.0547454885  33.4079364131  6.9712623690
O  20.6390327402  23.7285771315  19.1338032929
H  20.5561939191  24.3706045215  18.4108830448
H  19.7422441165  23.6108454383  19.5386300357
O  15.8259585034  33.2713623750  23.9313446726
H  15.3051491161  32.5221267186  24.3103521744
H  15.4375153379  33.5888298606  23.1020285359
O  15.2565393564  0.2827210440  22.5335637761
H  14.3321360873  0.0545398598  22.6742076595
H  15.7644321356  0.2066190195  23.3182210697
O  21.4644060181  22.2510803148  27.9693915873
H  21.2464280195  23.0685800420  28.4744618935
H  20.6228882451  22.0042986419  27.4536232847
O  12.6072808196  27.3290933009  14.2217960822
H  12.3068712173  27.8129044495  13.4582221963
H  12.2460020059  27.9533926444  14.9149742710
O  15.0041398140  23.0824174664  20.1568716823
H  15.2788384506  23.6884431774  20.8436914197
H  14.0406139210  22.9227875387  20.2529514693
O  1.2050608484  19.1830433401  15.3629873647
H  0.6825725254  19.4158747221  14.5837692075
H  2.0955055307  19.5874288533  15.1819720716
O  18.6149136055  37.0011056921  16.4234749791
H  19.3072291386  0.3246328426  16.7741581544
H  18.9722604758  36.1268726102  16.2887697961
O  23.8826932021  3.9582145220  20.5848125709
H  8.7141248298  26.3176739835  27.7711868850
O  19.8188061810  26.8882128034  13.4807147239
H  19.6989625268  27.7352716193  13.9952719062
H  20.5937412545  26.3795887777  13.6843758820
O  14.4485391662  30.9058762910  25.2210250670
H  14.3197649473  30.0734330636  24.7724169785
H  15.0700859528  30.7445683361  25.9497076058
O  28.4171121610  29.9559490967  22.3163757926
H  10.5268524047  15.8658858681  36.7805001631
H  11.5892726130  17.0601812388  36.8674986880
O  12.3186488470  33.3386329978  2.6944571003
H  12.5415025298  32.4766020954  2.9904513563
H  20.9004273892  36.2565021842  27.8884112952
O  4.6736573463  32.2217567868  35.2259122229
H  4.9382490751  31.5602870812  34.5197829468
H  5.0230200364  33.1212646551  34.9753467727
O  31.6392382788  32.0237995314  20.6564625543
H  30.7138391681  32.1043509459  20.4442711317
H  15.8496857198  32.8029267572  28.6788177977
O  27.5290776217  28.2922659698  18.6660320618
H  27.9244805711  27.9750275916  17.8590747551
H  28.1832962540  28.2661227402  19.3568485977
O  25.3964558246  33.7054899890  0.9539204726
H  24.4643804107  33.5581095039  1.0952957045
H  25.4805279963  34.6719446670  0.8579851271
H  36.7778307316  18.7240531786  7.3753492506
O  0.4952232720  16.4680500939  25.3716564012
H  37.2224533838  15.7648540865  25.7643299977
H  1.3578897128  16.4515399810  25.7790565124
O  27.6876020210  31.4280514995  28.6597153253
H  27.3701154929  32.2589947844  28.2694783535
H  27.8205726139  30.7742278890  27.9690527504
O  27.4481766276  29.7436160311  31.5651561222
H  31.2698487657  28.5984358894  36.6246316107
H  27.8794904019  28.9960960128  32.0824333227
O  22.4615508586  23.5137520993  31.2029411821
H  23.1194534271  22.9060602432  30.7579835002
H  22.0068305020  23.8918409727  30.4166185501
O  22.6314317623  28.1148115570  29.7142138760
H  22.5417294734  27.6526586698  28.8372054738
H  23.5790400225  28.1996118936  29.7959582657
O  13.7555773877  34.2739609921  33.8680043382
H  13.1190899890  34.9114327947  34.3194780489
H  13.6702728662  33.3690813842  34.1960219365
O  15.7175763107  19.6828471419  34.6864113183
H  15.6813251881  20.4114763882  34.0619049563
H  16.1435062542  18.9662234570  34.1751476241
O  33.2670463883  30.6931700445  30.5088334551
H  33.9200827047  31.0770320066  29.8337348449
O  13.4259512358  36.3648679109  0.6702415479
H  12.7707635192  37.0789819476  0.7645560337
H  14.1227211647  36.4505721137  1.3876724627
O  23.8518164614  35.2985402227  33.6507192963
H  24.6727125640  35.0233770885  33.1512266180
H  23.4723568793  35.9601432786  33.0322666710
H  4.9080059679  0.5054945794  1.8128660613
O  30.3904811117  18.2809601045  1.9756666191
H  29.5383573596  17.9680729202  2.2693263285
H  31.0501522113  17.7753238362  2.5053884972
O  34.5846815256  6.7428190970  20.7133001261
H  33.6755204164  6.9738540989  20.6420234024
H  35.1223094358  7.5027232930  20.5483751938
O  30.7824150712  23.5109159008  4.7632853853
H  29.8755604377  23.5361038715  5.1753055849
H  30.5657222351  24.0376225720  3.9798116265
O  16.7886567361  32.6155269386  34.5115426380
H  16.5437527242  31.9825660235  35.2317411209
H  25.7798977483  36.1228528007  29.6717487014
O  19.1688447342  23.7336888032  6.8059481212
H  18.6769220898  24.5445922108  6.7061164588
H  18.4469601693  23.1372475671  6.4776649868
O  14.8816523104  24.8966351904  5.9831879928
H  14.1898467502  25.0193726085  5.2774198251
H  18.2892346811  30.8169928093  23.6814933549
O  28.6014053712  33.5472203793  30.7499301566
H  29.4591331733  33.8840307086  30.9101600831
H  28.0014047516  33.7371714964  31.5021647215
O  20.2420321589  31.0104903109  21.5082174490
H  21.5551517789  6.6347831303  3.1620844288
H  19.3443936356  31.0360075858  21.8520575328
O  20.1432395285  28.6337394549  20.3065720673
H  19.9148839869  28.4954531279  19.3647204444
H  20.7482005719  27.9467038644  20.4720032677
O  10.5965988705  28.8506818159  35.5133969709
H  10.9391005328  28.1866394122  34.9358053978
H  9.6508352991  28.7815135895  35.4080135550
O  14.6284587770  4.3127912527  36.6666959289
H  15.4065482208  3.7795441859  36.5489300029
H  14.8148008692  5.1412145769  36.2043892872
O  34.2327093634  23.7324608559  34.7886803282
H  34.0164799869  22.8184926253  35.0263770185
H  14.0823231912  37.0828688922  19.8954368000
O  18.4349261068  33.7716157117  24.5306473175
H  17.5361783061  33.5896838366  24.2042191233
H  18.9116027847  32.9273811873  24.3559218928
O  10.7312521444  33.7157645299  34.0660539952
H  25.4963435541  30.7407481797  34.9708904968
H  10.7908783637  34.5315887690  34.6384304727
O  20.0026217680  31.3453293929  27.2357262740
H  19.5201935780  32.1324391836  27.3264084242
H  20.3498829580  31.0840813592  28.1063783297
O  16.2529913015  35.6098312743  28.7560522130
H  16.1630486181  34.7397746545  29.1291899880
H  16.7060712248  35.4828795704  27.9066819129
O  12.0789351469  34.4539320034  31.6725660392
H  11.8475106410  33.6721650680  31.1571024963
H  11.8322253378  34.2105620782  32.5486207239
O  25.5568988750  5.0614042310  32.9891707581
H  26.3953363130  4.6348654721  32.8205931192
H  24.9635999624  4.2662643130  32.7929308324
O  32.2111003774  27.2133211721  25.5467900560
H  33.2073058871  27.0573312182  25.6263288711
H  32.0266039486  28.0303749280  25.1468981946
O  19.7997383140  30.3523967650  31.6322136277
H  20.6009557561  30.3733684268  31.0709741906
H  19.4838201417  31.2717562606  31.4912152181
O  25.3773546561  31.2847954117  25.5064352747
H  24.5258716362  31.2198525668  26.0056389480
H  25.9277419426  30.7474624743  26.0993963070
O  21.4851138496  30.5396014519  29.6495140219
H  22.0859448621  29.7469134966  29.4947858847
H  22.0577333855  31.3071544731  29.5461202284
O  15.8197319073  30.2950121638  36.3614154804
H  16.2265309826  30.7136166290  37.1518556043
H  14.8946729601  30.5778701721  36.2111761930
O  25.5433649323  32.6501297633  30.4594147328
H  25.8169631663  33.1579472131  31.2537392972
H  24.5943965902  32.7540298338  30.4743666483
O  18.1634270108  20.1044542708  29.0099435823
H  18.9324097445  20.2502166404  29.6270689938
H  18.4532144742  20.4651534469  28.1556279906
O  20.1103115351  31.9994263562  34.8711334125
H  19.7271983415  32.0117629119  35.7775482197
H  20.8363418569  32.6058590349  35.0255659823
O  21.4003485748  29.1494682086  35.6638506182
H  20.6050240189  29.3206446639  36.2340278797
H  22.1736721527  29.6678913873  36.0460107620
O  29.2150237063  32.8103512865  3.5686560404
H  29.3652176795  33.6358860258  3.0723117333
H  29.3531084988  31.9888095008  3.0379334290
O  28.3080139004  26.7959581331  32.1240266566
H  28.9038086886  26.7679049653  32.9112610686
H  28.9328470129  26.5162252783  31.4684359462
O  21.1575881892  17.0818014628  28.6999089200
H  21.3558731537  17.8780932584  29.2817675066
H  20.5542209481  16.4968857098  29.2146395734
O  16.2014764674  29.6130770040  28.9968954087
H  15.7935022687  29.7176541364  29.8933962707
H  17.0125143219  29.0454344975  29.0684227988
O  20.3220893346  21.7324324975  21.1269456247
H  20.7485586340  21.4925268115  20.2695942665
H  21.0059278370  21.6186614388  21.8341212916
O  5.7156632300  21.0477888907  9.4113216829
H  6.0595268744  21.6934354723  10.1013262856
H  4.8846942445  20.8135861272  9.8449792620
O  3.9885744042  28.3368347596  26.7409472855
H  3.5179943898  28.9732178437  27.3060755786
H  3.2718876735  28.1290587365  26.0420722828
O  20.8598309315  27.1756726619  25.1979867267
H  20.4965955332  26.2942725549  24.9568714839
H  20.1323441035  27.6889214500  25.4083766408
O  10.8266927531  12.7397963018  23.7727715699
H  11.6227318240  13.2186216033  23.6595821767
H  10.5939120610  12.9084535710  24.6945890935
O  21.8512530080  17.9931303503  15.3781138904
H  21.2803748820  18.4044957884  14.7343761448
H  22.4693341216  17.4791780123  14.7958050210
O  25.1570260153  2.5087520118  34.9735329650
H  8.0498793383  27.6322579934  28.4354451512
H  18.7792940343  2.8800397850  0.7757751657
O  18.1385005499  34.6504803096  35.8235219651
H  18.3478598722  33.8207240375  36.2848794538
H  18.5893101798  35.3358970618  36.3674070603
O  32.0967089745  34.8715711449  5.9889833727
H  25.4843344928  2.4071718117  14.4735008876
H  23.9566295867  2.9070739064  14.4548848735
O  27.7108524883  1.6024789633  6.5478570063
H  28.3527308761  0.8993485535  6.5610904833
H  27.7932040621  20.9852616987  34.5713365810
O  24.6547804167  20.1547995626  1.4402427101
H  25.0419849717  19.9104640919  0.5777490044
H  25.2795215065  20.0200252730  2.2091918412
O  33.9080304450  31.9841053285  32.7595847449
H  34.7737965262  31.6035648652  32.8327525062
H  9.3500815088  7.2528172342  13.9967584267
O  35.2683443445  33.6723502779  5.2417593012
H  35.3215585515  34.4581284260  4.6918082350
H  36.1523396589  33.3793509824  5.2861642852
O  30.3078343128  6.7989228179  3.8383897942
H  30.0765084035  5.9057517199  3.9891245585
H  30.5980872520  7.1060380066  4.7094835572
O  1.3751202937  17.4101932277  1.7300468696
H  0.7804518218  17.4921686136  2.5346981802
H  26.6752896388  11.9795374278  6.2637191464
O  26.7104485969  2.4750290224  15.5907178555
H  26.8581623677  1.5970565310  15.9547849106
H  27.4892780628  2.7754610646  15.0735929903
O  27.8017228522  19.0960311238  7.6468659439
H  28.4281371273  18.6228052032  7.0371853480
H  28.1762184843  18.7637663435  8.5144080656
O  21.8170506934  10.7883254244  32.2993620023
H  21.1146688526  10.4312841036  31.7183570468
H  21.4709511812  11.6655753646  32.5566803782
O  29.6193066099  35.2923309786  2.1467232965
H  0.5578910868  13.1226269162  29.6874072245
H  29.3748151803  35.8629838668  1.3377987940
O  0.7502706129  34.6958943952  36.7030796782
H  0.0169114774  35.3593199791  36.7784449030
H  0.8239264677  34.3986235936  0.3696552700
O  24.5487810180  17.1696385921  9.4377145902
H  24.4114642181  17.9877967360  9.9023180711
H  24.7304949205  16.4662872414  10.0837112979
O  35.5719918157  2.5566845231  11.5422342900
H  34.6028271335  2.5361124846  11.4822905825
H  35.9100427448  3.4380532718  11.2965897677
O  27.8458229438  35.8979638084  4.3489255393
H  28.3369081640  35.6581921962  3.5702049307
H  28.5714643464  36.0802465181  4.9973285209
O  2.2402818441  12.6055254014  2.3188124273
H  24.8613078020  6.5071471899  14.9192769076
H  3.1078940577  12.1344633238  2.1289251965
O  31.6443092707  1.2569222092  8.8575049858
H  31.1415176679  0.4329593199  8.9577412814
H  31.5586220855  1.6035011142  7.9965371493
O  20.2823123327  13.8086492675  35.2510732508
H  19.5838774533  14.4903673817  35.2794138460
H  20.0898511057  13.5369281957  34.3223428590
H  25.8235357314  36.4468142064  7.3707078071
O  29.2340370084  18.7623017933  9.9846551384
H  29.9314774598  18.5653363331  9.3231070124
H  29.1083873357  19.7757562599  10.0904167323
O  30.3289197808  15.2115133520  10.0735662411
H  29.9695293661  14.6604354066  9.3302052176
H  31.2727583284  15.3120073881  9.8612705893
O  29.4711915772  2.8918710723  9.8434439309
H  30.0906304638  3.5444123853  10.1627634054
H  6.7991063440  4.2317517989  9.3652324017
O  19.1573616239  6.6493180518  11.7296874323
H  18.9501531036  7.4522679587  11.2436228134
H  20.1139431287  6.5872981574  11.7899115806
O  35.0018260754  1.7201690931  36.9950333949
H  34.6070191374  1.2159714441  0.4331636430
H  34.6932313744  17.7861087587  34.7373411718
O  5.4488944248  1.3090021533  36.0038424536
H  6.1039223993  2.0340841330  35.7933594192
H  5.9337852473  0.7726140593  36.5938836821
O  25.5965677946  8.4492222512  1.0254008873
H  19.2085959608  2.2678935767  22.2764516789
H  25.5031611505  7.7811932457  1.7468968168
O  14.4026807808  29.6853637253  3.6054198202
H  13.4358958394  29.8914671041  3.6804992291
H  14.8665259495  30.5490289869  3.6463078422
O  27.2447098874  3.3311881581  4.3034544300
H  28.1924214085  3.5095953059  3.9907967948
H  26.6487913699  3.8293115105  3.7479701810
O  17.0010389811  19.1797987447  7.9038145418
H  17.8767607631  19.5672715687  7.8073596264
H  17.0113890987  18.6019203375  8.6887681246
O  32.7392180939  29.7692593570  34.8092788824
H  32.1943841412  30.3413590893  35.3888913843
H  34.1373714943  26.4404051790  6.7891709784
O  27.8160121738  17.1355301826  2.7985404005
H  27.9297900957  16.3241410002  2.2700197497
H  26.8995992806  17.3774779267  2.7771402261
O  17.1216766780  36.7512380854  8.5992043952
H  17.0965168924  35.7883388376  8.5370431405
H  17.5498668758  37.0385035965  9.4445416782
O  26.7798104703  2.9347088736  22.2815246187
H  26.1534373834  3.3848501641  22.8800531307
H  26.2480303651  2.1237578398  22.0936559952
O  25.6305004237  14.8129731788  30.3435431229
H  32.4240175409  7.5187669085  10.5251943672
H  26.2645340382  14.6519082250  31.0708527298
O  24.9320506118  1.7552537873  29.0357876366
H  25.2467529333  1.6179964857  29.9363441626
H  24.0232928687  2.0431738815  29.0515111277
O  25.6351889624  12.7987325764  4.6491729708
H  25.5045426527  13.6765072653  5.1118128243
H  26.1858608285  12.9632385106  3.8205538049
O  5.6204437530  9.4106774424  8.3507787199
H  5.5852020713  8.4413555482  8.2213457534
H  5.7374173164  9.7652600012  7.4184087885
O  22.0770959092  7.9274441832  4.2427570441
H  23.0168889917  7.5959240651  4.2142557683
H  21.7131697704  7.9347657693  5.1664854850
O  27.2365085392  8.0761052527  7.9793152392
H  28.0555958509  8.4895657560  7.5930830338
H  26.8327718069  7.4375868378  7.3729918217
O  27.5261770473  13.0119758630  2.5517704123
H  27.5232790355  12.1425333414  2.0634910297
H  28.3926192873  13.0709832729  3.0164692513
O  34.7329133992  0.2858918422  13.3225851701
H  35.2340840290  1.1031966231  13.4405074445
H  34.5449179862  37.1803036728  14.2265026689
O  4.6512267702  11.4010520294  1.4524711390
H  4.5249725505  11.6055429609  0.4908638669
H  5.4652061751  11.9216476400  1.6484856466
O  29.2716008351  34.6658844813  18.8648840285
H  28.9284072288  35.0041229633  19.6943129378
H  29.4601001206  35.4248794019  18.3154464610
O  18.7016550102  3.3551820441  17.7357954328
H  19.3497523148  2.6040556419  17.6514934069
H  18.1592583302  3.1649788121  18.5692943576
O  26.5526862853  10.3508890517  35.2262213761
H  25.6176045237  10.1288817260  35.4931403498
H  26.8943928087  9.5164443259  34.9198025758
O  36.8326712409  8.8169303945  6.6642491580
H  0.0954450387  8.0029593062  6.7075429647
H  36.3594063014  8.6982473007  7.5522821235
O  32.7125706763  32.3300563019  5.2198102391
H  32.3960146416  31.7726186559  5.9379243730
H  33.6249731048  32.5134132583  5.3863696429
O  36.0036672253  32.5686925658  35.2143721502
H  36.5064702807  31.9306583965  34.7024134091
H  36.6988664575  33.1194949752  35.6803504864
O  33.0868050081  37.1887770660  15.9474516631
H  32.2903701475  37.1601542232  16.4886662565
H  32.8689249725  0.8434661969  15.6033665922
O  19.4258948992  31.3714557730  10.4599286172
H  19.9668352821  31.8117906857  9.7970342538
H  19.0530937328  32.1342331701  10.9486228232
O  28.8488029013  3.8036148085  14.5869185024
H  29.2478932977  3.8270796048  15.4663865095
H  29.1446783464  4.5715361779  14.1033174465
O  23.9055458169  34.3823683899  8.6951215304
H  24.2718725023  35.0865863249  9.3008699778
H  24.6429769438  33.8198116328  8.5149887094
O  18.9447710611  36.4594410936  24.2770390857
H  18.7246501165  35.6391293180  24.7028378967
H  18.2946075894  37.1225082410  24.5643880931
O  29.0886524895  11.5804303363  14.0210824971
H  28.7921331173  12.2572350189  13.3490201137
H  29.8064952963  11.2971858015  13.5681271124
O  27.2956108769  21.8953470877  19.5138810923
H  16.0616333421  19.2456261684  5.8081989883
H  18.4880247060  7.6750989452  15.9953278176
O  33.7899119494  2.0272885121  4.9062275357
H  34.3311019254  1.3369386939  5.2979414009
H  34.3706788451  2.7835116680  4.8561895893
O  18.1580510971  10.3194280739  37.1768370980
H  18.9645209220  10.8469033825  0.1953564958
H  27.0475264158  1.2745654027  7.2013767978
O  21.0548613699  15.4426430179  16.4294779657
H  21.2017495357  16.3772038542  16.4151579104
H  20.0801322493  15.2466592160  16.4635820734
O  21.1720246070  28.4839630863  8.9666879068
H  21.6408151384  29.3151520055  9.0239128978
H  10.4591365373  24.3573410891  16.9828923296
O  36.6458058457  1.9864133691  2.6098650281
H  36.2547091577  2.8797890402  2.8942211431
H  36.6232960314  2.0718634197  1.6477890785
O  29.7712365051  36.4044804744  10.3473940377
H  29.0014674585  36.3102659628  10.8452475514
H  29.5893165171  36.2196914921  9.4459903401
H  5.1361067070  6.7795769643  18.9366217909
O  30.4918403879  8.9149258748  24.8741328812
H  30.1610960928  7.9963590270  25.0404169719
H  31.3919176525  8.7924287782  24.6332433569
O  25.2960806750  3.6936993218  11.4491428459
H  25.2734105544  3.3069445300  12.3433938546
H  26.1456141183  3.2992330685  11.0263030318
O  16.2236297363  26.7821227500  14.6753620435
H  15.5958296253  26.6818134968  15.4192117270
H  15.9820446487  27.4477437291  14.0218101902
O  12.5222148972  9.0783372919  18.0654244757
H  36.0525868314  1.3477292445  9.7596754121
H  11.7678871558  8.4354584582  18.2718794452
O  28.3743043825  7.6432794008  11.7249265982
H  28.0552705109  8.4436931607  12.2378049629
H  27.5131504979  7.2927320955  11.3412765936
O  3.9139113586  20.3774415023  19.2594735240
H  2.9147729820  20.3458195658  19.0634978901
H  3.8874724860  20.9124346751  20.0921776796
O  28.4762484550  24.9908701591  17.2571734451
H  29.0462347059  25.8108586735  17.0603563487
H  29.1020921153  24.2391171658  17.0653935722
O  33.6159387081  0.7318351987  2.1791167432
H  33.7995371590  1.3747689889  2.9534494186
H  32.7530684398  1.0933333999  1.7636499660
O  27.0765776241  21.9537755363  15.4710357076
H  27.6420587868  21.4588689890  16.1169499757
O  30.8122283031  3.2794789300  26.8183041138
H  30.5425830335  2.3439586451  26.8278882175
H  31.4417877849  3.4254089271  27.5435294693
O  33.7320700675  13.9019947491  10.5519244393
H  34.5975514210  13.6061892110  10.7984205237
H  33.6018313077  14.4603891294  11.3181428974
O  25.5534478579  36.2886571128  6.4375357741
H  25.2295635359  37.1471172859  6.1444740976
O  34.1487630043  4.5579740739  37.1541608473
H  33.9301277508  4.5183547339  0.8627155387
H  33.3475145233  4.8619086693  36.7572175746
O  25.9562017462  14.2242894652  35.6797158432
H  25.5093402583  13.5233029342  35.1895226706
H  26.7972100459  13.8006198872  35.9809675041
O  32.8269893006  2.8156638449  24.5562227130
H  32.8742777688  2.6723838745  23.5699012877
H  32.3833938145  2.0380887031  24.7852072316
O  34.1608088655  10.7658905503  29.3804610657
H  34.6857734134  9.9582616268  29.4039000629
H  5.8330857692  10.2859386140  19.3944334634
O  17.9586076457  8.5320378861  14.5060187449
H  17.5892299318  7.8836464578  13.9209807832
H  18.5310287948  9.0019479676  13.8770417355
H  34.6737038387  2.6524285048  37.1137727455
O  35.8094106152  19.6873959523  20.0362084887
H  35.8138694713  19.2908898534  20.8936310421
H  36.4027634198  20.4624472331  20.0707212850
O  18.8930862663  1.6340584068  21.6197112244
H  0.1691450725  4.9909280192  26.2346089011
H  19.7145441054  1.1132273612  21.3266197798
O  36.2737136299  5.2404027513  10.9973931926
H  36.9166654793  5.8450106041  10.6544584388
H  35.7984806792  5.7409358731  11.7416650718
O  29.9187911054  0.2499599229  14.1500072019
H  30.2040337518  1.1011096572  13.7631560420
H  28.7035130121  33.3054198085  17.5823183275
O  33.3224761853  11.2608015446  16.8258070858
H  33.3803216399  12.0581444321  16.2613702075
H  33.0775088941  10.5062628269  16.2092923489
O  33.3370121327  13.7339412641  15.5388012256
H  33.3927179552  13.4416016901  14.6335234698
H  34.3300798085  13.8418686586  15.7094377498
O  21.7538327807  0.2381331543  24.5588897555
H  16.7540929961  7.8417535651  20.2798800354
H  22.3656287147  36.9803193680  24.0284696056
O  27.4350553763  1.7623828750  10.9205592005
H  27.5844745443  1.0442427579  11.5403580921
H  28.3002360962  2.0591862691  10.5575979174
O  30.7917436501  3.9504558666  31.1331875648
H  30.1815025662  3.3196864877  30.7244687590
H  31.3363327321  4.2567939789  30.4197490670
O  10.3200982301  32.6373340758  23.1077854915
H  11.0956587651  33.1193101689  22.7260397282
H  9.6982412961  32.7653564966  22.3678683689
O  31.3927187005  7.8023264332  28.3648551883
H  31.8369601694  6.9711324950  28.4784382779
H  30.4489837314  7.5883722902  28.2851098192
O  28.3814833677  9.1993057271  20.7506898148
H  28.4232554270  8.2194014925  20.7325244787
H  29.2435263013  9.3994290284  21.0863251293
O  29.6307101913  4.5396876301  5.9723909616
H  30.2732008694  3.8509112563  6.1538808802
H  29.9066612838  5.3793692518  6.3324028503
O  31.7934665606  16.5971483127  18.9668546392
H  32.3665891804  16.6953221419  18.2466708002
H  30.8774427451  16.7520065614  18.5448669403
O  24.8503327697  1.4877684144  5.3729787204
H  23.8923297124  1.1917798545  5.2576488479
H  24.9632471970  2.1175956748  6.0922425338
O  20.5802584816  14.2037671260  26.5788573835
H  20.0922900514  14.9957106365  26.6898848766
H  19.8629814946  13.6259806253  26.2977392849
O  30.8194504246  8.3162356368  10.6988278313
H  30.0250548324  8.0127830118  11.1669168056
H  30.5187657336  8.5027935702  9.7894384547
O  36.0319228169  9.9723907682  16.9368031764
H  36.4811397311  10.1462256960  16.0711016149
H  35.0758011527  10.3869280521  16.8270196239
O  36.1693980594  5.1199900545  28.7753546184
H  36.3650064683  5.4533738172  27.8859848343
H  35.2051694333  4.9946697563  28.6558690870
O  24.6942474803  9.9740753851  27.9914643128
H  24.0258940961  10.4846319375  27.5194354464
H  24.1629168035  9.3669717678  28.5489645559
O  35.5423191304  3.0249867897  15.7398800488
H  35.3514611644  3.8879536213  16.2870873282
H  35.5484751199  2.2987184013  16.3415566134
O  3.3685005189  11.3803742395  23.9828353398
H  2.9735883876  11.9723236372  24.6537511956
H  2.8300546281  10.5331219176  24.1429296665
O  22.9987383042  28.5807896780  14.5696684494
H  22.8116775024  28.7878312879  15.4688374732
H  23.9847977350  28.7091348130  14.4842556069
O  27.5238815857  7.8124771248  34.4632676880
H  27.4659971807  6.8597076674  34.7321752444
H  28.0197755033  7.7884637944  33.5614941095
O  23.4248211574  2.1753687057  25.7563924071
H  24.2304878273  1.7251419224  26.2316064306
H  22.9102600824  1.5280257507  25.2081868868
O  32.6431624382  2.7310203974  15.2176175584
H  33.6172954190  2.8574105566  15.3182895316
H  32.3514473705  3.5535618331  15.6562013394
O  27.4151513762  6.0270950782  23.6807729103
H  27.3287450395  6.1605595592  22.7179736865
H  26.9852089600  6.6316406256  24.3909082284
O  25.5044598650  6.4080383955  11.6221625481
H  25.3084021844  5.4791490441  11.5026747670
H  25.5302413794  6.4971924960  12.5904809726
O  20.4283685560  3.0544647196  23.7030326009
H  20.3881407030  3.0489131001  24.6855721326
H  20.6526878511  3.9526628345  23.4306241985
O  22.0057767806  13.4107499893  8.0481405589
H  22.4143393259  13.0893122897  7.2468911289
H  22.5829787894  14.2041788354  8.1932611512
O  1.9344782481  7.2306430780  30.4489164758
H  19.7812930041  7.0248291855  16.0912643527
H  22.4482361818  5.0756774711  25.0053524319
O  26.0237196963  7.3879706401  25.6879804599
H  25.3347089512  7.5781244009  25.0315271911
H  26.3133105359  8.1406000031  26.1713667542
O  33.7125395590  33.2189777433  9.6154821133
H  33.9716161686  32.6527468272  8.8538710705
H  32.7610843670  33.3511232168  9.4874869457
O  33.1349621009  4.8820752382  2.3588600956
H  27.6564613102  9.8140019335  25.2740117764
H  28.8356533224  9.6636632017  24.2135046248
O  26.7806527627  20.9149507524  34.5768336999
H  26.5216956801  20.7892342755  33.6621529587
H  18.5310984027  10.0347015645  36.3441870371
O  27.0782794269  20.1563263116  28.4849315277
H  27.8008958948  20.1521621946  29.1361337506
H  26.4884532943  19.5096491976  28.9432653607
H  29.6626319524  14.7271295472  26.2753857855
O  12.4931539877  7.2578200447  24.5058673684
H  11.7501652987  7.2755971490  23.8518270483
H  12.8129973235  8.1331809821  24.7315349278
O  5.3180008281  19.9507263752  23.0694040236
H  5.3001601237  20.9080646529  23.0613522864
H  5.4847504199  19.7315862306  24.0092297611
O  1.1784887278  19.9077745556  0.0162986445
H  1.6848405497  19.3248913593  0.6798695542
O  23.8460297058  10.3080066147  35.6899580305
H  23.4926705031  9.6490273575  35.0410126588
H  23.4580742319  10.1389765268  36.5930805769
O  18.9640226782  2.7300168124  26.1219040260
H  19.4165810865  2.2956102900  26.9135862940
H  18.3727369039  2.0944527929  25.6976523881
O  34.3561933249  31.3185233985  15.5973514413
H  34.4266121834  32.1821400115  15.8846708178
H  33.6667034198  30.8620813377  16.1159686481
O  27.4166683943  3.3688888546  25.4646265877
H  6.9095754561  4.6323349379  33.1618072772
H  27.7664645907  3.9484156358  26.1647265392
O  16.1834371146  36.2984167535  32.8782551792
H  17.1130284410  35.9583241524  32.8587742778
H  16.3398569407  0.0025477278  32.8625620571
O  35.0728684268  34.3324828647  27.6377508498
H  34.9758112768  33.3146264126  27.7248699753
H  34.1013743901  34.6389138908  27.7569161740
O  28.5070438269  16.8104582075  33.9426140000
H  29.2931669706  16.8877136844  34.4862362684
H  28.2855838904  15.8620582728  33.7482365783
O  6.7194925780  27.1571019957  36.2035594345
H  34.5076171721  6.6519653003  6.1244566931
H  7.2359280878  26.3199586015  36.0836069333
O  1.8195877281  6.2051796726  4.7621621740
H  2.5559258284  6.5239075918  4.2276128768
H  1.7096643664  6.8258160344  5.5086182839
O  27.4324267379  11.6709083913  32.7874114481
H  28.2941277139  11.5187585423  33.1496280192
H  26.8285156985  11.2027243657  33.4029980237
O  29.1259388236  15.0924120974  0.8862032175
H  29.4865447708  15.6872457823  0.1991570780
H  29.8965489592  14.7386611397  1.3912956208
O  31.4101846096  23.7947103029  21.0143036636
H  31.7856374181  23.3594854611  21.7992668019
H  30.5303661728  24.2452479004  21.2123316190
O  25.8680745710  16.9783317432  34.6668869341
H  25.5838131856  16.0903840454  34.9816714746
H  26.8037549353  16.9146278665  34.7278145869
O  29.7355279477  37.0654091666  32.1925057188
H  29.0763714060  36.3717743118  32.3806959792
H  30.3422063425  36.9765508381  32.9285545246
O  26.3557706066  4.9539106847  28.8218877234
H  25.5830641988  5.4557694213  28.4346802562
H  4.3512914052  0.0772437914  25.6608783808
O  29.1250686734  24.4499942745  0.5892853218
H  28.2068680805  24.5693027397  0.2851951374
H  29.6184082463  24.3448662044  37.0168331560
O  35.4874234317  17.1564717733  34.8873414924
H  35.4342749765  16.5552765242  34.1853299465
O  0.4263929986  5.8913087284  33.1664677930
H  1.2759814819  5.9857248172  33.6816715634
H  36.9811028631  5.7491103096  33.8200342528
O  36.7505774383  5.5845786781  26.0287315539
H  24.7328927900  8.8840399081  0.9574175634
H  37.0713048538  6.5176349705  26.2131555152
O  21.6350083489  0.0739674144  19.9949837622
H  22.0626601026  36.4519538840  20.0837125748
H  21.8285853616  0.6568002824  20.6871377129
O  29.7720841379  3.4371841227  17.3084954538
H  30.1022063963  2.5417761963  17.1683042559
H  30.5917748164  3.8806863193  17.3038593594
O  35.5195236374  9.6102324069  26.8654861214
H  34.8689276259  9.3321450603  26.1784225134
H  35.3044733690  8.9914216780  27.6044213495
O  33.6751362580  0.2277937491  26.5459981302
H  33.8293659050  1.0784189677  26.1563488885
H  29.5447480830  33.7355700300  22.4256066799
O  16.0770126674  1.9665401178  28.6634335012
H  15.5943731174  1.2119334330  29.1167221790
H  16.1989248126  1.7102731204  27.6912835178
O  33.9043956083  16.6422741300  1.3639089233
H  34.4590328389  17.4083731763  1.0773793568
H  33.4656032051  17.0078201046  2.1686561568
O  0.6939222568  28.9369320314  36.0453664693
H  0.2622429662  28.6550780534  35.2173634614
O  3.2092529094  2.4569929067  20.5640038059
H  2.4942338630  3.0671823858  20.6318427384
H  4.0267243735  3.0646506633  20.5333276161
O  28.7043064188  0.3048404088  28.3904730420
H  29.0043306097  0.2593489748  27.4740775979
H  27.8536481159  37.0183772195  28.5585845682
O  29.1504313780  8.1788582766  36.8679118743
H  28.6828806379  7.5271099064  0.1207542084
H  28.7318470167  8.1643805555  35.9658210948
O  32.2392037788  10.0990049307  27.1826512556
H  31.8169794185  9.3213482401  27.6028361667
H  32.4344078082  9.6865048121  26.3382062227
O  27.0571474072  34.1470333845  27.5824886487
H  26.6920681325  34.7116918199  26.8324147325
H  27.0199580598  34.8107914709  28.3228030157
O  26.4452143299  34.4117330790  16.2776144091
H  27.3004478471  33.8971483747  16.4161671398
H  26.5750704631  35.3606924787  16.4959396120
O  0.0024777831  12.6799429945  24.4752851509
H  0.1395452426  13.4086545562  23.8415495038
H  0.0830149569  11.8598879649  23.9719408098
O  37.0771972642  36.8097208407  27.3082395210
H  36.2019695165  36.6102904086  27.6790046602
H  36.9079425500  0.2643226683  26.6992827797
O  35.8759021423  14.7853541086  26.8080128613
H  35.1450607875  15.3067810549  26.4100307291
H  35.6033405302  13.8735876251  26.5846426112
O  0.2435071927  0.3880209964  34.2425439366
H  0.2635269431  0.8515576385  35.1009444636
H  36.7332257546  37.0255591417  34.2954482038
O  27.2402998349  30.0192731747  0.1518550794
H  26.8265185897  30.7904345190  37.0413020584
H  27.1233744337  29.3577218607  36.7350764933
O  4.2316638677  2.4547087016  23.3310898686
H  5.1731238386  2.2804606994  23.0224217258
H  4.4331427185  2.5241132724  24.2797098035
O  30.8018254786  9.7318770685  30.7244119049
H  31.3878791436  9.0248337993  30.5330920736
H  30.3483720710  9.5098548523  31.5240547626
O  31.5889111766  32.4312930380  36.3901228666
H  31.5873589180  32.8237600943  0.0243778840
H  32.0145231527  33.0370243414  35.7645321322
O  31.1456076701  33.7845270690  32.0880091759
H  31.7219331802  34.2337535786  31.3874479294
H  31.2476812606  32.8645434665  32.0719683552
O  35.7318166247  8.4893564851  31.6098661848
H  34.9250713365  8.8506069023  32.0007307228
H  36.1590950877  9.3288755588  31.3876684684
O  35.3873999739  16.5867493982  31.1913051160
H  35.1288034584  15.8180223013  31.7361717084
H  34.5337284499  17.0523950883  31.0371529464
O  23.8719659318  35.1796385589  4.2024865735
H  23.3991056933  34.7084878392  3.4710788070
H  24.2524894096  35.9719353172  3.8074455543
O  25.6293143301  33.0318940068  23.1483684557
H  25.7735270014  33.0664322983  24.1651551134
H  25.2253283807  33.8978838773  23.0593506465
O  12.9108387627  36.0340749764  25.3270786513
H  13.8542120842  35.9368799086  25.4368064800
H  12.7725037247  36.9149632589  25.6483858743
O  22.6288135284  11.0814676273  22.4025276520
H  23.0211158788  10.2544369661  22.7304327239
H  21.9694113114  11.0030163178  21.6691095753
O  22.7802459108  14.2877861952  29.4806721317
H  22.1631575049  13.6103463590  29.1631713739
H  22.5635555237  15.0740037572  28.9927782142
O  29.3843555625  9.4474804514  7.2453444619
H  21.8910633776  6.3869181663  24.6435808307
H  15.3886788875  19.5533828946  4.4303672658
O  30.4627761757  11.6073197699  0.4816255055
H  31.1298450710  11.7974638759  37.0720862274
H  30.6840439470  12.1915555155  1.2005284101
O  36.2734165717  34.9748452461  30.0391127130
H  36.2536997666  34.5253250958  30.8693026098
H  35.4373061619  34.8676023602  29.4977577444
O  36.4619193773  8.1062359994  9.3082978628
H  21.8096159631  2.3746713887  8.5325735083
H  21.8506337942  3.6477650761  7.7647951677
O  36.7151525001  20.8306921285  1.9545420169
H  36.0573773003  21.4340198139  2.2996965166
H  30.7620705693  11.7358210963  30.1024732006
O  23.7351238994  29.3475562757  5.8995247254
H  24.6465175140  29.6781674890  5.7073847050
H  23.2731623701  30.1731330852  5.7685642325
O  8.4641109227  6.8131254432  13.9413976969
H  8.1169446990  7.1955151409  13.1438647074
H  28.4716644460  14.6965585874  32.2900890113
O  21.5772948170  21.0995858364  36.0868803167
H  21.9495173156  21.0902982614  37.0136363882
H  21.5840310777  20.1579041999  35.7004479262
O  7.2327351337  16.7138227620  1.2798652839
H  6.8996203331  16.7529990741  2.1718159879
H  7.8656288662  17.4701022741  1.1340315722
O  5.0598215081  18.2492219595  9.9847307268
H  4.5905315354  18.8221883342  10.6372935674
H  24.1680159804  15.5826906926  6.3711032908
O  27.4731280591  14.8664155128  22.0320795684
H  26.5812091954  14.7572547668  22.2849633282
H  27.2753464772  14.9024341262  21.0586036414
O  31.8070233369  22.8453806305  1.0825302638
H  31.5855445525  22.7973711293  0.1403356884
H  31.9696064444  23.7969109659  1.2780941710
O  32.2119749275  15.1374585185  32.4648231959
H  32.6032922214  15.7578824107  31.8139649665
H  31.3246146597  14.9397278064  32.0676462109
O  23.2071810303  29.6917431273  1.8611363779
H  33.0448026054  29.0443660763  27.7253033105
H  24.0221585684  29.2385161828  1.8645543286
O  35.4427981702  23.8506082663  6.2799670109
H  35.5306661860  24.7870867719  6.5938861750
H  35.2437472300  23.9559217048  5.3870836056
O  29.4621951651  13.4697008705  7.9259230568
H  28.5632900036  13.0447565683  7.7491244865
H  29.9877895159  12.8200594030  8.3138422490
O  27.8926568136  17.2168299994  12.1123498344
H  27.0730689232  16.8750442202  11.8071884861
H  28.1653952489  17.7382267530  11.3047165375
O  25.6904598069  6.8570031425  14.5226344317
H  30.8532303593  23.5066066941  8.3512972415
H  26.3673862792  6.2612270754  14.9580235237
O  31.5784782666  20.7353745531  6.0635009455
H  31.8092171537  20.0165037069  6.6654422478
H  32.3141151011  21.3717305715  6.2172905154
O  25.6157801202  14.6968396204  1.3733258292
H  25.7369707553  14.6419917211  0.3871962136
H  26.4937231218  14.2282923900  1.5450940434
O  33.0267863380  30.7989061720  2.6580788504
H  32.8491868451  31.1447831868  3.5862233837
H  33.0462105134  31.6412090085  2.1451181090
O  32.8929841697  12.9196318669  23.0888956054
H  33.5073647938  12.4512620206  22.5103926761
H  31.7811979627  9.8933397157  13.6280974073
O  32.6143727726  34.7568179242  29.0791637051
H  32.0180378054  35.5224242567  29.1745066898
H  32.0211894963  34.0319993437  28.9133307086
O  36.2215431117  10.3093910601  23.3082766071
H  35.5214334174  9.7764237995  23.7168413571
H  35.7027162527  10.8056006227  22.6873922403
O  25.2777463703  19.2381219598  36.4220749921
H  25.8643894070  19.8720716339  35.9108497413
H  25.4800543240  18.3901444911  36.0313837633
O  25.4071008462  12.3668220508  9.6968389534
H  24.4882550493  11.9932426360  9.5183050825
H  29.0101726161  7.2447873547  31.9407253771
O  1.5253166474  31.4036659294  2.7016009193
H  2.3139814535  31.1090376100  2.2348619194
H  1.3336776195  30.7268703403  3.3421222048
O  34.6643194265  12.2170624427  13.4936562114
H  35.2742481324  12.7250930381  12.9411157301
H  32.8861998995  10.1237196643  3.1478657408
O  29.9958898776  30.6147055022  2.4814542885
H  29.5632521427  29.9970635426  1.8696287907
H  30.9406957127  30.7408024787  2.3217033256
O  29.5783813160  29.0499817478  29.2462103241
H  33.0142080521  16.2244691302  12.3194146591
H  30.1621864377  28.4547880817  29.7146861218
O  34.1896964447  27.7362589067  31.3389051257
H  34.1368050791  26.7658874292  31.6640913183
H  34.8668665594  28.1864100191  31.8438582142
O  28.2284103700  13.0577619976  36.6105060848
H  28.6449118084  13.7562718384  37.1523382669
H  28.9569468855  12.7686321583  36.0155828789
O  32.1550861728  25.3835051896  1.3393359933
H  32.5504832356  25.5879199189  2.2118639844
H  32.8483926251  25.7133784827  0.7257417576
O  34.9662551713  14.6301127015  37.2491754551
H  35.6322228155  14.3809179130  0.6689934963
H  21.9476701082  14.5059403549  15.1167760131
O  27.5777966519  28.2478833827  35.3965091232
H  25.1870012173  15.6600125111  30.6024219757
H  28.5383088287  28.3716395599  35.4202810361
O  30.2018871570  25.5814838636  13.8739346497
H  30.3959269731  26.3677879553  13.3093496728
H  29.3537077306  25.1174691720  13.5700703564
O  32.5548984401  21.8285550068  25.4075190552
H  33.0455720352  21.7211730525  26.2075217176
H  31.7985969570  22.3194167090  25.7756224084
O  35.9397203383  16.1139232751  13.8037268373
H  36.7158020165  15.9366093079  13.2056391401
H  36.1012270233  15.4935439126  14.5663782469
O  36.2399373245  24.4985435218  1.9372786976
H  35.7146655964  23.7813107796  1.5724374629
H  36.3724415705  25.0929742395  1.1689836018
O  1.5512323775  19.8945949653  3.7733408340
H  1.7822353152  19.0658340358  4.1868924438
H  1.4966647914  20.6271996298  4.4476964712
O  33.1625343924  4.4562781452  8.9355738858
H  32.8963886726  3.9041844232  9.6526113904
H  32.6607551034  4.1972701281  8.1805812605
O  2.1364167433  20.4860974716  24.6563411026
H  2.0662837398  20.4536791578  23.6236195240
H  1.2517974718  20.2188787646  24.9167316843
O  3.8579853561  20.5251894434  2.6914437728
H  4.5401127232  19.8008816680  2.8592521651
H  3.0329558547  20.3832367991  3.1428448289
O  30.0155242698  10.4692998099  4.6624361066
H  30.2681448543  11.3704278169  4.3954847783
H  30.9000370741  10.0497022343  4.8031052013
O  34.7067434912  22.4099615827  0.9841488041
H  34.8034622417  22.0100576471  0.0904100232
H  33.7598510222  22.5655337657  1.0980848020
O  30.7874181357  17.1261874592  12.2143351435
H  30.4651672461  17.5537125577  11.3327755268
H  31.4609630633  17.7339511816  12.5258761611
O  27.7304069857  2.2018012572  1.4536738117
H  28.5009861789  2.6653248272  1.8704767631
H  27.9142004168  1.5252962445  0.8138902769
O  30.1047330400  17.6860694410  16.1033189209
H  31.0809286267  17.4648889368  16.0873071089
H  29.7165108567  17.4190629107  16.9234984086
O  32.8759719827  12.1168316568  36.1651169257
H  32.8753549835  12.5025532310  35.2272789631
H  33.4261605294  12.7226683159  36.6378185380
O  27.3708894489  14.0338819782  15.7837979670
H  26.5328532976  13.8634028412  15.3013055279
H  27.1494158445  14.1739940465  16.7540791222
O  25.1927222790  8.3726646627  9.7286796805
H  25.4699581025  7.5764087030  10.2097394190
H  25.8857997480  8.4817509481  9.0288839379
O  29.3232129582  27.8718067250  20.9438108207
H  29.0037524281  28.6909447385  21.2981055132
H  30.2931992599  28.0136538570  20.7877480605
O  24.0915245179  19.4189864976  16.9500434605
H  24.3444328970  18.9722863387  16.0950684280
H  24.9624209537  19.3318961197  17.5071506021
O  5.2073183523  13.4411016960  5.8312763773
H  4.3582849071  13.8415397161  5.6471775824
H  5.6678847677  14.0433520344  6.4320823094
O  36.4042448504  19.2194079677  32.2256423905
H  35.9997459978  18.3917192690  31.9060208475
H  36.0350031331  19.9729503259  31.7338336421
O  23.5162341856  24.6963539712  5.1906539996
H  24.0296940499  23.8441014626  5.2995001571
H  23.8277168613  25.3167322800  5.8686863507
O  32.7950572943  18.2844142544  24.1968813829
H  0.8700766629  24.5555502382  2.7344643969
H  25.8600036095  18.7566010391  4.5080897230
O  28.8055713546  20.4594867621  4.0544642848
H  28.7176358633  20.9683309358  3.2542754950
H  28.8764470492  21.1233923553  4.7161635287
O  27.9718260702  5.1141401162  8.7209856023
H  28.8968649476  5.2320245667  8.7948802849
H  27.6607642532  6.0025689750  8.5755955513
O  33.5511185030  26.5775606993  16.8789639943
H  22.2715716028  15.9474510671  21.1919716670
H  22.0037526876  15.2231394746  19.8820108492
O  1.3569367742  25.6881929644  20.5410944416
H  1.4310434491  25.4722798527  21.4917210231
H  37.2528955378  20.4441510822  2.6868698640
O  26.0078916640  19.2491004763  19.0067816702
H  26.3887892906  20.1738566518  19.0992383796
H  26.6558985975  18.6627227075  19.4881183490
O  9.8810416923  23.7471702872  16.5365069670
H  9.5744950312  23.1431055845  17.2060588742
H  32.4773145028  31.0474543766  26.7148560055
O  33.4130308892  25.6597492355  20.3620715925
H  33.0881239056  26.5865502223  20.3384097572
H  32.7321194581  25.1074752468  20.7433863498
O  33.6359095580  36.2315746030  10.7902454075
H  32.8158552074  36.6111031423  10.4308863697
H  33.9168518396  36.7731206117  11.5472852028
H  24.7125741590  16.4752775606  19.5101085824
O  30.7651673419  13.1547737815  16.6370583587
H  30.7061626693  13.5482613142  17.5193700925
H  31.6255215848  12.8325371486  16.4647472961
O  0.1446820590  22.4542467538  7.7737184232
H  0.6232876065  23.1921168032  8.2285084599
H  36.7003535907  22.8703595287  7.2948318254
O  24.6209730121  9.9470774172  12.2843550461
H  24.6630610886  9.4629801483  11.3803784620
H  24.3220216143  10.8315982577  12.2413707611
H  5.3310751274  16.6301362871  14.6351868472
O  5.9561653512  31.5014658563  11.8020108573
H  5.1931352614  32.0759603037  11.7591208236
H  6.1509410429  31.4079746269  10.8342013393
O  21.1979253883  24.6383343636  29.0730492242
H  20.3787791465  25.0387508557  29.3989165666
H  21.6313782428  25.2742744040  28.5358986406
O  1.7048294583  14.5545372693  32.2753779387
H  1.1275215191  13.7689783763  32.3903236402
H  1.0606526720  15.1725979490  32.5884171417
O  25.4291841688  3.0136782089  7.6272479700
H  24.5883573140  3.4533380300  7.8953657271
H  25.4162117860  2.2163559624  8.1702222425
H  30.4992146894  25.1663259987  27.0580772489
O  3.5849261054  22.9247245782  17.0011340322
H  3.3056308759  23.0142962063  16.0640695276
H  2.7662368348  22.8064390215  17.5444426359
O  30.9288199311  9.8164364244  21.2929662798
H  31.3329804146  10.2215242305  20.4798534705
H  31.0040971506  10.5638055615  21.9369989866
O  30.6109971724  21.6426048970  11.9990304345
H  31.2958629639  21.2836431945  11.3860059083
H  30.2801789983  21.0130959518  12.6460765638
O  31.4004545359  10.2835486717  12.8166729022
H  31.4399084729  9.5189340263  12.1772262885
O  29.3186787199  20.2834485302  15.9029509135
H  29.9749012015  20.8958955685  15.5863099335
H  29.7950982493  19.4065099853  15.8855237874
O  36.5766364510  23.9541382339  20.0920261723
H  0.0530710713  24.5743183620  20.2172828421
H  36.1419431781  24.1671492499  20.9246798383
O  0.7293965083  31.8423564632  22.6283170444
H  1.4769939911  32.4445900584  22.7653943854
H  0.8988916540  31.4456719184  21.7408695769
H  36.8203999427  21.3367362325  16.1509588671
O  17.8979964482  18.4184731964  24.1798437489
H  18.4504020816  18.4181026321  23.3508076721
H  18.3844015150  18.9897384145  24.7755020001
O  4.6104503162  21.6235083635  6.9485149309
H  5.2151189107  21.5212336563  7.6876461972
H  34.8176648523  11.2682155728  13.2949772689
O  27.4764214260  17.6314230750  22.8228852168
H  27.9815444911  17.9738191792  22.0326183172
H  27.6476780058  16.6865030522  22.7721614791
O  33.3557773874  15.4161634240  12.8100431450
H  23.0871432113  28.7736077522  23.3059871323
H  34.2688524979  15.6440719447  13.0993219985
O  28.1597414607  12.2346776249  18.8117760135
H  28.9657523227  12.7199936170  19.1448848600
H  27.4494001300  12.9649362349  18.8139006788
O  28.3800441023  12.2434494235  21.7927998898
H  28.6653192151  12.0811751627  20.8679079118
H  27.8531633450  13.0296565974  21.7870915801
O  28.7610063010  26.3582413702  6.7991346386
H  28.5936102420  25.9276956672  7.6701085960
H  28.7783315105  25.5972926998  6.2080565161
O  1.9292740808  7.3980840383  13.7101103969
H  1.7355026791  7.2691004694  12.7401267647
H  25.2692031854  13.3035466601  18.8171561962
O  32.8276974601  31.8929057457  13.1759070516
H  33.3516921972  31.5555981813  13.9453213962
H  32.4052370473  31.1583459281  12.6916551466
O  32.9071220082  12.5836517772  33.6422611784
H  31.9519031921  12.3083021323  33.6166051068
H  32.8113690737  13.4377129877  33.2036746413
O  29.9809894096  15.6372007998  23.8646200323
H  29.5423305151  14.7905227327  23.9893574019
H  30.3909933572  15.4497782265  23.0016711220
O  36.4656283029  29.3090143796  24.0702263155
H  20.8814126515  37.0434353505  24.3592520615
H  35.5017211970  29.1746594932  24.3147465946
O  28.2171127995  6.4491337986  16.1423643341
H  28.5674382769  6.6699310118  16.9874266939
H  29.0438261479  6.5142672309  15.6378575504
O  25.2630418923  19.2942538413  22.6673243438
H  24.3663481306  18.9622291260  22.4766111445
H  25.8557240657  18.5041367417  22.7383843560
O  33.3392394290  1.6893781221  34.6661882383
H  32.8307092403  2.3982493850  34.2271351574
H  33.7901854343  1.8418378225  35.4662034275
O  4.2888298333  33.9916680037  17.0985265271
H  5.2259464194  33.6088867259  17.1512595190
H  3.9829103858  34.0916750857  18.0500162811
O  1.9874983078  16.3394980453  15.4759708579
H  1.5580620549  17.2038112690  15.6494050048
H  2.9717853438  16.3973027823  15.3622920868
O  26.5044789351  7.8868151752  18.1099652489
H  25.5664977338  7.7278266390  18.4066553298
H  27.0574869231  7.2586201288  18.6616615530
O  18.7280867459  32.4004210587  18.2933277451
H  18.6541690632  32.7998461494  19.1489242615
H  18.4394771939  31.5089097325  18.5627203702
O  28.8094243411  18.8306649086  20.9923005145
H  29.7670408754  18.8189934356  21.2552058816
H  28.5447514759  19.7737747447  21.1120194927
O  17.8718361360  10.6434699291  18.4590095496
H  18.7061507283  10.8313333862  17.9702757264
H  17.9264009560  11.2456187852  19.1980669755
O  32.2880583626  11.3383810279  19.2658851989
H  32.6662529556  11.1589167745  18.3500240807
H  33.1410142067  11.4199530417  19.8031016442
O  5.0556871561  26.0095870872  12.8293683122
H  4.5427259061  25.8714775715  12.0239789730
H  5.8674633575  26.4152579014  12.5648417070
O  33.3813258992  20.1182557402  32.4340449968
H  33.5154712223  20.3488953473  33.3765982760
H  34.0817116977  20.5031339083  31.9042972338
O  36.3886357390  13.5575682478  11.9403072479
H  36.7928002023  13.0651045350  11.1810668528
H  37.1963546950  14.0188592258  12.1991233025
O  28.7156837948  21.3650799540  10.0460995758
H  27.9449069213  21.5577315172  10.5378591584
H  29.4458916802  21.8280678934  10.5868356220
O  24.8878768409  12.6076998152  22.6450159761
H  24.7315705268  13.5600683351  22.5732781238
H  24.1400366690  12.1953928661  22.1858739333
O  28.5480861664  4.9388841463  27.3491719444
H  29.1283471909  4.2602806835  27.6695186096
H  27.7823445324  4.9400972937  27.9397881081
O  25.1224951828  18.5411240980  29.4338666672
H  24.3599365989  19.1403630105  29.5882952639
H  25.2424105060  18.1189477830  30.3032435257
O  29.6028513787  15.2347020625  14.6403678407
H  30.2341870309  14.7443249135  15.2218255262
H  28.7204366220  15.0706723398  15.0288989937
O  23.8927461355  15.9384389170  3.0565357018
H  24.5221572682  15.3324265856  2.6357936024
H  24.2960461082  16.0062569320  3.9439484458
O  31.1309290746  28.2547714396  31.8128724512
H  31.0083000481  27.6221220620  32.5551205876
H  32.0416116915  28.2121159498  31.5671612057
O  0.5017172594  25.2697297023  29.3250816297
H  27.0208316432  19.5863188696  3.9280508402
H  30.1771227342  20.8460775608  30.8010346032
O  33.2550115656  20.6865950596  20.6250840223
H  33.3826129786  21.3670727047  21.2924010102
H  34.1746179964  20.4534685947  20.3283576884
O  34.8839079278  26.5288537159  25.9118410329
H  34.5594243766  25.9668888347  26.6857005077
H  35.0159348481  25.9226441855  25.1910132706
O  37.1156050107  19.1688491185  25.0101678763
H  26.0179672382  25.2964031107  33.6373128531
H  26.8798965181  26.2095404286  32.7857524390
O  30.8433199204  12.5043802282  29.4759134194
H  31.4061111525  12.2541672550  28.7053951548
H  2.2701548764  25.5630373001  20.1855518315
O  30.3688837417  15.0606952106  26.8591397805
H  29.8646023235  15.5709052846  27.5737752386
H  28.8983662144  30.4867320551  35.9673353187
O  29.8424553727  6.2567182783  25.0273589358
H  29.3618233476  6.2317537638  25.8885399400
H  29.0342612477  6.2011650233  24.4224405032
O  9.1271648593  14.9169071728  0.3814180840
H  9.4392070836  14.1092296468  0.8955182318
O  24.8590922880  22.2840070893  5.1512250146
H  25.6398809966  21.9487233226  5.5616314053
H  24.2668997128  21.5063440159  5.1619425036
O  1.2217518491  25.4889193279  12.1518730770
H  0.7210981436  26.3100454977  11.8615585080
H  1.4024453996  25.7287777121  13.0938094105
O  23.1550181384  14.0960314913  25.4352948967
H  0.9692348428  26.5486561938  25.4318550445
H  23.0066047216  13.7320334224  24.5801644737
O  27.0895077560  9.4853762024  26.9017620169
H  26.2906459097  9.6208542540  27.4219275872
H  27.7563269814  9.2967859701  27.5997989890
O  33.1591829577  26.1857123674  35.8589443920
H  32.3308105204  26.1519188584  35.3656580033
H  33.6052602612  25.3846407883  35.6420636404
O  17.4793095005  20.9480375159  36.6817617052
H  16.7961258844  20.4483362406  36.1965242426
H  17.9768973509  21.2861038303  35.9466065697
O  24.8920623828  6.9369218298  35.9524826303
H  24.9578909845  7.3286804872  36.8652359187
H  25.5374608601  7.4324752660  35.4341377533
O  34.0125576058  7.0743140525  6.8680476872
H  36.8657058162  13.9579323978  7.0681189880
H  34.0707106440  8.0223349661  6.6114369396
O  0.1731578503  20.2649757654  34.7919083590
H  37.0876958833  19.9541997441  33.9385071589
H  36.6556720884  20.7873789934  35.1029895486
O  28.7449213925  22.8853298703  29.2569834635
H  29.0038285736  23.8424346790  29.5115517379
H  28.9178890242  22.6271327933  30.2006094992
O  29.0754849422  19.8665967327  13.3029494873
H  28.2686374304  20.0947427611  12.8547491932
H  29.0034245294  20.0231873639  14.2621703177
H  32.0073378002  12.4488748335  23.0774800427
O  2.7543005193  17.6422992734  26.2377450940
H  2.8228082994  17.9575845284  27.1816854946
H  2.6855787526  18.4294509007  25.7217403994
O  26.1266336588  21.5023525551  26.2547235990
H  26.6555487320  21.1991350936  27.0625484093
H  26.2840667034  22.4304713855  26.0395535642
O  22.1365106803  26.4934251385  36.0493123041
H  21.8023071627  27.4244737433  36.0952338113
H  22.8198017085  26.4275828419  35.4339496280
O  23.0904461983  4.3875502924  4.4700964748
H  23.9664720607  4.8294701417  4.2423820273
O  32.7545995635  17.3133677570  27.3379087442
H  32.6883417044  16.5263633612  27.9618154950
H  32.0737176306  17.9451484312  27.6666237588
O  32.8050967611  10.8116415351  2.4015064272
H  32.3975415445  11.6230435058  2.7959810127
H  5.1454702363  21.4464365388  6.1640305017
O  6.5085396136  18.2228195361  27.9020747224
H  5.6478149578  17.9491797391  28.2828404067
H  7.0066710647  17.3832886097  27.7368382174
O  22.5312022708  28.9431169778  24.0651478614
H  30.1409936334  29.3124339871  28.4885167921
H  21.9074298062  28.2123719493  24.2147086718
O  22.2538995160  31.6025552716  25.8844568005
H  21.4502850136  31.3545009208  26.4378433181
H  22.3946544654  32.5232815782  26.0276315493
O  31.2336773966  37.0227936378  29.6150542000
H  30.8979538935  36.8255534656  30.4982044624
H  30.3777444952  37.1935588538  29.1056499678
O  6.0588639854  16.7061999439  21.5516840353
H  5.4183098885  17.1626717721  20.9284549317
H  5.8169675071  15.7651346248  21.5859084258
O  35.0264414527  12.2824152744  26.1717662585
H  35.1250184769  11.4561279219  26.6486756472
H  26.9859178464  23.7961983845  29.1152577718
O  31.1080193520  21.5160530950  32.2348000671
H  31.9692081905  20.9896309348  32.3777685368
H  31.2438025891  22.4641822676  32.3998304838
O  29.4648155328  21.0926073450  34.5654272036
H  29.9604324281  21.0714667565  33.7512536364
H  29.9283597461  20.5512377467  35.1776983843
O  3.9392978195  30.4235819867  1.5979650000
H  4.0938386587  31.3365386935  1.7725967975
H  3.9862229274  30.1305894260  0.6740734965
O  29.8955163387  15.1221793770  5.6602322407
H  37.1264417103  29.1547731847  36.5370818507
H  29.9222885262  14.4594177626  6.4500414292
O  29.9111314050  17.9569568794  5.9137124184
H  30.4281428490  17.3467208086  6.4707441851
H  29.1465515175  17.4094023521  5.6115699507
O  35.3308064223  13.2869289819  30.4486240504
H  36.1861241868  12.8603268977  30.6962699865
H  34.8423983712  12.4885222713  30.2313998509
O  35.9839614650  28.5383135413  29.0479600232
H  36.8965922768  28.4546897059  29.4074152251
H  35.4403968177  28.1058011632  29.7123539041
O  31.4368616702  36.9554573747  34.7733170467
H  30.5989569518  37.0331055895  35.2423227707
H  31.9610666395  0.4453938320  34.9938887258
O  35.2251194439  18.4267500381  22.6610297720
H  34.4596850263  18.4948901931  23.2047238002
H  35.9859955386  18.7376743755  23.1406078152
O  15.5712302593  12.0396122327  0.1985551245
H  14.9877349424  11.6747326426  0.8536969361
H  16.0709894968  11.2877406090  37.1459238486
O  21.2571661829  19.7786745008  31.6624307239
H  20.4888506592  20.1707090420  32.0595057947
H  22.0627364907  19.9702151914  32.1973490808
O  4.3112001126  25.8821428597  20.0439530892
H  4.7277873534  25.4841366849  19.2785179880
H  4.5303769168  26.7838502139  19.8351028618
O  0.4384184300  21.6165402047  20.1047369799
H  0.1936362679  22.4908386319  20.4394361733
H  1.1818108263  21.1997054982  20.5701271974
O  17.7258154106  10.9436227584  5.1887414122
H  18.7106418855  11.0854977512  5.1556407916
H  17.3401958517  11.7971692966  5.1300367517
O  36.5837996193  7.2667638640  18.4075866073
H  36.7792821963  7.8631957221  17.6878818890
H  0.1780327651  7.0249668836  18.7573277401
O  36.2027137751  16.1845144038  9.4848757727
H  36.3677211363  15.4186631785  8.9880575304
H  36.7924721977  16.7922480293  9.0230524021
O  30.5780898845  16.4209786139  36.2663617743
H  31.2326884154  16.0572210292  35.6530004317
H  30.8483617144  17.3005573961  36.5363500924
O  33.6751042911  15.3345219214  24.4533292923
H  33.6896253722  14.4259531730  24.0193451354
H  33.9578419914  16.0375447787  23.8347154256
O  30.7249850075  22.9565090852  27.1605085518
H  31.3353573950  22.5590675586  27.7915757955
H  29.8754207958  22.7238535139  27.5655603931
O  27.7012979082  18.4292907859  31.7430087899
H  27.7619763154  17.9628610270  32.6030921403
H  28.0090657146  17.7398202740  31.0791209840
O  2.2989919377  10.3026299576  28.9409496065
H  2.5274215205  10.9345861910  28.3040812322
H  1.6927939919  10.6926974474  29.6043375718
O  24.1921862944  12.0843035175  31.4121897333
H  23.8893229860  12.6667628568  30.6664358254
H  23.4359549806  11.4121704147  31.5370212256
O  27.1714957509  9.3267470999  13.4268868235
H  27.5937500525  10.2074241795  13.4378818517
H  26.3263697859  9.5973958432  13.0560797614
O  21.5253636447  18.3173291107  4.5863706880
H  20.7513779052  18.9505488879  4.6091838199
H  21.7967068732  18.2326272138  3.6231316003
O  32.3710502188  9.2533595076  35.9548681622
H  29.2617377918  19.6754459564  30.7634503633
H  1.6358818982  23.7934951518  3.7830536464
O  29.8709710014  14.7185964967  31.0058623058
H  30.1075485220  13.9502919506  30.4448658248
H  29.2896932724  15.2378023393  30.4038859120
O  1.0940868040  9.2035708598  33.5314183451
H  0.9441019218  9.8912324280  32.8238693363
H  0.7078894269  8.3772175651  33.1973834662
O  1.1653506752  18.0754382293  11.4881640619
H  26.1161326573  27.5814534982  5.4920806715
H  27.4763934867  27.2138977568  5.8664252518
O  27.6035238713  32.7564035095  9.9165627158
H  27.1903614698  33.1755521931  9.1533180667
H  25.7181688142  27.5616968530  29.4973619608
O  33.8896471199  36.1803054239  32.2193133279
H  33.8571355297  36.5726904511  31.3475499572
H  33.1905999818  36.6967963094  32.6482950171
O  27.7026141504  14.3822804859  32.7760354383
H  27.6473406527  13.3853126401  32.7439730445
H  33.4682689730  31.6270275666  31.9918005649
O  33.2418417407  22.3066835656  22.7959613825
H  33.9488110121  22.9531651239  22.8626038341
H  33.0878060210  21.9731987254  23.7179871490
O  1.7583560159  27.7018987592  30.1839358852
H  1.3500180268  27.1584399691  30.9072825628
H  2.0318979824  28.4587671428  30.7452408303
O  2.7805827947  13.0086418066  16.2498953005
H  3.5323774804  13.1762864007  15.7038192470
H  21.0999576409  34.3122725699  29.0184231857
O  35.3368385032  36.0747369688  3.4575877079
H  34.7529024306  36.4437698157  2.8651645880
H  36.2206183291  36.1619529133  3.0471152809
O  35.1150185741  2.2251585200  31.0673221131
H  34.4158144106  1.7382242888  30.5353415843
H  34.7426510300  3.0874736726  31.2832654548
O  35.6232282098  0.3012161679  5.6815883092
H  5.7688261500  3.0140299452  7.6455893614
H  35.4559668721  36.8853085545  6.3764178900
O  32.8687925597  18.9131506851  12.9472160860
H  32.5256716080  19.6722785205  13.3800162192
H  33.0780611326  19.2436368181  12.0488304263
O  23.2979680550  30.7183693894  36.5560746518
H  22.8104762176  31.5739615325  36.4389339767
H  23.2119863219  30.5105673941  0.2326869243
O  29.2287650037  31.9187200739  6.3831098385
H  29.4349153622  32.3504805631  5.5109132251
H  29.8056044747  32.3288714954  7.1196544528
O  35.4215742958  18.8005920174  0.4088829099
H  35.7551988276  19.4540331154  1.0543816987
H  34.9900894096  19.3403307738  36.9588104592
O  31.5939873588  24.0797153632  8.5684296602
H  2.4857731335  13.5553017436  2.5716584958
H  31.4954960066  24.4292950934  9.4567829451
O  31.6883816650  24.3564237493  32.2548434786
H  31.5845615454  24.9560978397  33.0434928915
H  32.6433264985  24.3890557125  31.9662778072
O  34.6746608047  32.0152334915  0.1075857169
H  35.1328003177  31.9899458149  36.5291406868
H  33.7419770864  31.8701333392  37.0472768512
O  32.5804425298  25.9912996802  5.6345422924
H  31.9570040872  25.2957928306  5.6374407287
H  33.1350644087  25.9394741348  4.8118916401
O  23.1930421491  31.7184229782  22.1769629777
H  23.4311855375  31.3325977395  21.3958713550
H  11.3830447359  33.4082791450  8.0798966051
O  31.5176712333  4.8409871656  22.2946984562
H  31.4864649240  5.5799611393  21.6529641987
H  32.1364641871  4.1383964961  21.9477140921
O  6.3920138522  36.4656520793  29.2160436074
H  6.3043082522  37.0263103755  29.9976224661
H  6.5711215820  37.0219717620  28.4636611799
O  0.8020993614  22.8105904362  10.7792267250
H  0.9120993290  23.6936650462  11.1470616292
H  1.7292695581  22.5615036252  10.6787110267
O  22.2491132072  27.5195051106  4.8117936412
H  21.4577983053  28.0245428274  4.6933038670
O  22.6503718019  30.8517904256  33.2288975792
H  22.6145013602  31.8094904417  33.1671957113
H  23.0521243550  30.7248971512  34.0770082937
O  32.1192526440  29.3117619125  5.8169510808
H  32.5436418566  28.9410755464  5.0300541734
H  37.0120935233  30.5111026579  2.0233717283
O  1.3989645823  31.0623191256  9.8088005627
H  1.0526963740  31.4376501970  10.6247740038
H  1.8175216388  31.8710378638  9.4636712834
O  21.1746687742  0.3424650534  8.3283353960
H  35.8106987449  19.4452447889  10.8812451934
H  20.3318138668  37.1596671732  8.1417211421
O  19.0969290895  36.0245221409  33.2792837850
H  19.4187464334  36.7471412145  33.8247891001
H  19.4667745337  36.2054634919  32.3647308844
O  33.9986398431  25.9229549974  3.1609135010
H  34.8476740384  25.6012823171  2.8249054951
H  34.1551616096  26.8989324779  3.1006771402
H  1.0599787883  33.3444937226  2.3279787157
O  29.5182291642  29.0912267108  4.7358625737
H  29.9779543093  29.3521605973  3.9464732600
H  28.6521666915  28.7826821117  4.4154641748
O  35.6489927753  28.8966395048  5.8519795297
H  36.6149035623  29.2204785079  5.6990787111
H  35.2912409631  28.8347132267  4.9668582610
O  33.4114705792  7.2770412357  10.6259499046
H  27.4388288537  27.3086869764  35.7498463471
H  33.4652366148  6.9814318661  11.5490990280
O  0.9008231622  34.0609062273  28.1874036055
H  0.1017565353  34.3313396719  28.6657218735
H  1.4942340193  33.7272597030  28.8740254235
O  7.9967430650  30.3997642068  2.3474326827
H  8.2360284934  29.6577188537  1.7664339041
H  7.5763400810  29.9575812506  3.1078589924
O  4.1955711485  28.3832498643  3.4603768069
H  5.0954764806  28.4666727375  3.7988903462
H  4.1101720807  28.9417002295  2.7028896959
O  2.7654347982  1.7700295234  4.3291901186
H  2.2354328074  2.5552560243  4.6645936337
H  2.5734011335  0.9781636780  4.8794411129
O  25.9232584971  20.6067462274  31.7725212238
H  26.5206909198  19.8218868238  31.6846537061
H  25.7023339453  20.8521079426  30.8560666827
O  32.0988756861  33.4392025267  1.4862793486
H  31.3037418098  33.9554911909  1.7483430512
H  32.6720193807  34.2481567934  1.2366659472
O  0.8961483035  29.7038943658  4.8536518918
H  1.5579845038  30.1017907850  5.3868574758
H  1.0971759307  28.7324434530  4.8049746829
O  32.3550483889  34.3895731844  34.5481581380
H  31.7960942472  34.2124455120  33.7708020451
H  31.9727174461  35.3033305305  34.7767348128
O  7.7493640261  29.3007223127  34.8696360666
H  8.0243117854  28.7373630564  34.1172894567
H  7.0720888194  28.7489342859  35.3368172131
O  36.2623244965  36.7309138935  0.1838701364
H  36.7745484170  36.5787884733  0.9898813997
H  36.4533628557  0.3994023391  37.2207059762
O  31.7550906733  21.2295071745  3.2137364849
H  31.5356584435  21.9415731730  3.8211278993
H  31.7951501107  21.7327635688  2.3852665460
O  7.2104810137  0.1014098527  6.0411917526
H  6.8174140314  0.8934410419  6.3755434906
H  6.5273695287  36.8557070336  5.5661577577
O  4.0805571308  9.6003850041  3.4235822830
H  3.1170281381  9.6329117905  3.4898133354
H  4.2865377030  10.2092739745  2.7258263377
O  34.4595990705  19.7408053212  3.6461819854
H  33.9719049793  20.5416224602  3.8842509620
H  34.9214514053  19.5382353029  4.4942314929
O  29.5817201865  9.2216434462  2.3829974090
H  29.7201122389  9.8912832655  3.1148139030
H  29.3879659310  8.4599499216  2.9543510027
O  28.2059816499  23.8430438676  5.5574267187
H  27.7858611718  23.1200012788  6.0763042388
H  27.5308311823  23.9446404784  4.8675867923
O  36.0043917390  25.5950328931  9.7176490787
H  36.5810530389  26.3890589464  9.9406954725
H  35.5543992745  25.8680751351  8.8686038257
O  26.4155139762  32.8215349409  3.4515454776
H  26.2949415003  32.9472028658  2.4944053489
H  27.3912480042  32.9681193513  3.4302142406
O  25.8286887450  36.6528177387  0.4365427121
H  25.0818080771  37.0101704599  37.1149508263
H  26.6732401108  37.0730354852  0.1151117605
O  2.6775839294  26.4533817717  34.2266141192
H  2.5623704565  25.9022266135  33.4441524048
H  1.9157298914  27.0120129653  34.3371215059
O  20.2285948283  12.0777593241  0.2134115573
H  20.2687949152  12.7395725336  36.7011908019
H  21.1127349762  11.7484097876  0.4396181094
O  34.7717791950  35.6801245784  7.3537551372
H  26.1396643420  2.4262455742  34.8176966000
H  7.4035032992  15.2667832171  4.0292399328
O  2.5981705218  33.6005721812  9.2766036938
H  1.8999964017  34.2788014456  9.5196514935
H  3.1230333123  33.4822218544  10.0815122061
O  4.2877218002  26.7157789601  0.8865531831
H  4.0280263970  27.3755095905  0.2112060888
H  4.2510354907  27.1114019760  1.7612876754
O  21.2574843121  4.4831869908  18.3848292458
H  22.5351871561  28.4728958383  18.0587198459
H  22.3782669196  26.9452717384  17.7803586619
O  6.4532628190  1.7184793378  18.7842477459
H  5.7300003483  1.1721932182  18.3201940067
H  28.5500470998  32.6416059419  9.6640574875
O  31.8150614250  31.6893310118  26.8813624403
H  30.9733321425  31.3455553778  26.4730253063
H  20.4279472526  28.6825809706  8.3968962908
O  3.8091124432  25.5332694632  8.7411149356
H  3.8080190808  24.8260286301  8.0605160619
H  2.9918690672  26.0641764863  8.4323802347
O  23.8604825648  5.6311582191  16.5431289943
H  24.6297474691  5.1116878462  16.7994523640
H  23.5613905977  6.0729048691  17.3699667388
O  11.6921728662  11.6420727807  27.7400883287
H  10.6789904458  11.7937872706  27.7431990972
O  22.7874265157  34.7108173859  20.4652502858
H  23.4652184201  35.1218174275  20.9918077915
H  23.2759500678  34.5161746093  19.6271204042
O  25.9838127403  30.6598252131  4.8924144185
H  26.0666593182  31.5041739630  4.4128430210
H  26.2192563603  30.0501375804  4.1534143630
O  32.0293807502  27.8559210069  14.0275562973
H  29.1973892445  33.8220630850  13.8745900725
H  32.0998982144  28.6750834059  14.5675855933
O  33.3035053344  31.5379442324  23.1757058609
H  33.3183818612  30.7878802655  22.5674364386
H  32.6325910401  31.2347528034  23.7817527620
O  26.5164143575  23.6154620328  3.4182282444
H  25.9727441296  24.3388001058  2.9604819831
H  25.8393322503  23.1139520817  3.8721788121
O  30.3637795534  26.0489172166  27.3983710590
H  26.7950006811  22.7415298934  15.9377699115
H  31.0218136074  26.6090223380  27.0133644688
O  35.3488162110  6.3922763996  13.1702459847
H  34.5200811457  6.1895914757  13.6289193556
H  35.4040368131  7.3591957518  13.0569550753
O  32.6127630219  17.7679155618  3.7014458854
H  32.8326388091  17.3148084650  4.5275332307
H  33.1742604004  18.5675770560  3.5577786747
O  34.5838106508  36.9346274483  20.7192781282
H  34.1787458005  0.5118401409  20.3676570289
H  34.5788344045  36.9940906696  21.6896584338
O  10.8535977917  33.8908049254  8.7556502504
H  11.4529442489  34.6941041118  8.9006308261
H  23.4318544231  0.0862685452  13.3398810890
O  29.8536531945  22.3836181011  7.6034300379
H  29.6793112683  21.9108565443  8.4606951289
H  30.4672540270  21.8728174861  7.0893072221
O  27.4976517300  5.2496533950  35.4519647740
H  27.1987907565  5.1638951775  36.3989855147
H  28.2554353525  4.7217497053  35.4258349482
O  29.0736209814  33.8672123197  25.7932992870
H  28.9939999972  32.9407549756  25.5722239830
H  28.3814145326  33.9894793207  26.4902840468
O  2.5622911809  28.4419526431  18.0143187328
H  2.5920465795  28.4037939016  17.0613122558
H  12.5716098453  27.1349750246  33.5483721536
O  35.8457506752  1.2153054676  17.8760549300
H  36.4680381113  1.1260653729  18.6387147099
H  36.0295165986  0.3858549692  17.3238506928
O  17.2959737178  2.9399247925  19.9851837751
H  17.7491602499  2.3911966919  20.6380729596
H  32.8361314258  29.5211561640  6.3891394115
O  35.8677848260  32.7548060343  11.2750526856
H  36.4235381496  32.5542032835  12.0290765506
H  35.6234142976  31.8563331042  10.9249755224
O  35.6437887957  18.9437952638  11.6474675481
H  28.6527865917  26.7189268204  27.5186800043
H  35.0635726896  18.2583661344  11.3025346615
O  0.1225481285  28.9527511440  8.2287593871
H  0.0796186063  28.5753899310  9.1091202379
H  0.7406447009  29.6915401336  8.3353810705
O  31.8176995185  26.8558184503  8.1582581173
H  31.9631359068  25.9244508487  7.8980181860
H  31.1349253709  26.9073332277  8.8304381852
O  14.1258489388  30.2900496880  9.7825210369
H  14.5131135118  31.0498466248  10.1950541538
H  13.1923614794  30.5601259484  9.9314028839
O  2.7024843545  14.4316310434  20.4123012171
H  1.8030547375  14.3846074534  20.7871930853
O  0.0426722480  0.5786080514  20.1748163120
H  36.3688064149  0.2757906499  20.3422663015
H  0.2606048720  1.1548996930  20.8813442328
O  25.9693673382  30.6751973356  18.0331812731
H  26.5750701507  31.1217158186  17.4100340678
H  26.4281567546  29.8839709321  18.3866505603
O  16.2845676214  8.6350779006  19.9822739252
H  36.6317067803  28.5505388010  23.4830196881
H  16.9411632960  9.1852706855  19.4898770222
O  3.8173033777  33.2512033605  11.6860703832
H  3.0546231181  33.1943022954  12.2707633146
H  4.3161266321  34.1316592602  11.8313710341
O  24.6332147816  0.5121532178  21.6057804879
H  24.7328540616  37.1491113235  22.3429123352
H  23.8681122019  1.0659885533  21.8445359953
O  23.7826747447  28.6234390487  21.6853218664
H  23.6858088118  29.3958919526  21.0920851738
H  24.4709738762  28.1439876894  21.2408870066
O  10.6851504331  18.6676366611  30.5929418764
H  10.0186306906  18.1114467286  31.0601302284
H  10.8950308285  18.0356173721  29.8370267365
O  31.8375695261  36.2372289613  22.6739816361
H  32.6834261854  36.5992279782  22.9578158889
H  31.2778346500  36.9343327957  22.3062106483
O  2.5519552925  35.6407107831  21.3584649716
H  3.0716385503  34.9720159316  20.8229028108
H  1.6408389972  35.3049394102  21.4950332893
O  28.0009547821  29.8862264437  26.3731513321
H  28.2589582988  29.0154851758  26.6808011498
H  28.8155784497  30.0780988715  25.8086410927
O  30.0664953017  34.9300942505  15.2218870601
H  30.0701867714  35.8411174821  14.9684054499
H  30.6411560821  34.9497636151  16.0396797398
O  23.6517104265  30.6952940065  19.8377084169
H  24.5782793848  30.6062157195  19.5792385884
H  23.2096488259  30.6083955645  18.9916325771
O  6.7845641881  32.8404473783  17.1999708639
H  6.9677093973  32.3368899693  18.0178006415
H  7.3924589518  33.5912519420  17.1729501880
O  29.8426455647  0.7691212875  21.9408071738
H  29.5549928880  1.4962702138  22.5899592611
H  29.2684263243  0.0646641929  22.3280299892
O  22.5042715671  25.9801712886  13.7359004860
H  22.6572345372  26.8945189805  14.0109934961
H  22.9489347941  25.4089978125  14.3704175627
O  3.8574114469  35.3487806683  7.5954241364
H  3.3631660546  34.7179756353  8.1854658180
H  3.2258996934  35.6460214592  6.8799209428
O  0.4005570184  2.2078195162  22.4251538520
H  36.8904792057  2.2340628654  23.0447163754
H  0.9050768379  2.9786173732  22.5018811438
O  25.8441820696  29.6831228642  23.1929921771
H  25.7577417685  30.3078805303  23.9377116771
H  24.9306452471  29.3684917208  23.0092987911
O  28.9020403820  2.8532408191  19.9730474006
H  29.3568480584  3.0286679846  19.1282177266
H  29.3345134132  2.0627358204  20.3403721028
O  16.6703236991  33.7704435961  17.1535475403
H  15.8719359070  33.2831240357  16.9759697268
H  17.3619225521  33.1900190460  17.5319646918
O  31.0645772901  19.3642355745  36.0941053920
H  31.0206639468  19.5610478238  37.0304813945
H  31.9498210225  19.6362087108  35.8855666204
O  25.0887983690  27.2636604450  19.7072715933
H  24.2740663953  27.5712157812  19.2308327171
H  25.8720561779  27.4708351371  19.1739632301
O  26.2347014067  26.9367045297  23.4033574676
H  26.2609547204  27.9149379997  23.2413501883
H  27.1524978447  26.7712018351  23.4670815306
O  26.0390533437  34.5404675118  13.3290265425
H  26.1801114818  34.4420924548  14.2773694355
H  25.2580007752  35.1341220472  13.3549884365
O  6.5972610843  26.4124716723  16.0398853536
H  7.2096030522  26.0080898475  15.4166494986
H  6.4326921771  25.7992933275  16.7958538511
O  36.3960969017  27.3043229502  21.9649235086
H  6.3433759943  14.1615728776  4.3969331449
H  23.9296836019  4.8108910734  21.1091963371
O  36.4688327829  33.9459952738  18.7744624143
H  36.5393640881  34.7000034381  18.1507883830
H  37.1718235988  33.3326130723  18.7133651543
O  28.3663784733  24.5598631704  24.1085588105
H  28.8395107593  23.6845825940  23.9831742406
H  27.9336427727  24.5354523840  24.9592968844
O  10.8596256912  26.7558658393  2.2016404866
H  28.9500125444  30.2056479947  23.1064014810
H  27.5215852967  29.9861047433  22.6359259219
O  25.9425240581  28.3738866943  29.0120624498
H  26.7136621535  28.1791731138  28.4584810334
H  6.0138202227  2.5199575655  19.1474173634
O  29.6556502318  30.4840673022  35.3321737832
H  30.2370490620  31.1855318432  35.6647741043
O  1.8051709393  4.1769416397  35.8325656734
H  0.9319883594  4.6447799470  35.7925928377
H  2.0871630906  3.9140144176  34.8961372104
O  10.1868989089  20.6109925538  33.5030232987
H  10.7002494621  20.9684094469  34.3001530952
O  33.5484684633  1.1006673239  29.3219988196
H  33.7223813634  0.7283589326  28.4205855984
H  32.6085288402  0.8892113969  29.5358470891
O  25.8952257730  1.3656956384  26.5329930773
H  26.5646687784  1.9684864790  26.0972531159
H  25.7454758800  1.5315864484  27.4523146036
O  30.4705790277  30.7779084102  32.5372361506
H  30.6717076009  29.8521096363  32.3100409244
H  30.0160429597  30.6516602194  33.3854364200
O  31.6915060189  28.7001019464  0.2285828238
H  3.2589031305  30.7718248403  23.8307014210
H  32.5621576854  28.2801716853  0.1176350436
O  36.6452033451  31.1875450485  33.0156651753
H  36.8626432098  31.3750037107  32.0790004541
H  36.9472191030  30.2375999359  33.0664158769
O  0.4904176827  0.1236152536  30.7294742481
H  1.2008268510  36.8598086726  31.1405410982
H  0.0109798998  36.6679418876  30.3427396018
O  23.1836420443  3.6261978761  32.7071489886
H  22.5372313935  4.1936046588  33.0695477409
H  23.1208647029  2.8913677648  33.3622551802
O  2.9267392775  32.4579204990  26.6147253991
H  2.1888165467  32.2694018096  27.2765182887
H  3.0975937171  31.5853199847  26.2145621431
O  36.3893236066  13.7202167668  7.8705234313
H  5.7882315670  26.8200307329  36.2809505245
H  35.4207367780  13.7354805228  7.7057617256
O  28.0416599621  5.9872448470  1.1563034626
H  28.5503509039  5.2212282579  1.5479254257
H  27.3816916866  6.0804021443  1.8857970345
O  27.8167621376  2.1057158864  34.5538511273
H  28.5254384263  2.6703629892  34.9565339553
H  27.9972205274  1.1939995379  34.7297180085
O  24.0993440584  0.3695209332  12.7346283127
H  24.4361078620  1.2904649869  13.0376349942
H  24.0460364838  31.9766986374  22.5968264310
O  1.2266435831  4.4240679412  20.1858308397
H  1.5257372215  5.3029854677  20.5008052292
H  1.2533491158  4.5026380648  19.1979130935
O  12.7166271987  6.6948992996  32.7713530555
H  12.6213201656  7.1480383820  33.6050933174
H  11.9771444424  6.1099345139  32.6324204973
O  7.5664352046  27.5430719198  21.6546122190
H  8.1104057427  28.3622847097  21.7994530972
H  6.6624613304  27.7977286171  21.6080707236
O  26.7197900067  36.0620035344  29.4808274774
H  26.9290026163  35.5716154272  30.3095560401
H  34.7658563394  36.1259412788  35.6158495510
O  16.7402755081  25.4179629254  9.0305217605
H  16.1505518214  25.6211792471  9.8199899237
H  17.6401327149  25.3391293751  9.4606256326
O  36.2763147429  30.0199918781  1.6099428420
H  35.6817850936  30.6539904778  1.2600284340
H  16.7953353662  3.6923398602  20.2357468506
O  3.9666741581  33.8548423411  1.9074243797
H  4.4917510946  33.2964628610  2.4910035082
H  4.5699825932  34.0732763707  1.1838208938
O  27.7023795335  27.0314004924  27.4891992786
H  21.5380913270  37.0305980611  9.0006044493
H  27.2372308444  26.3535185948  27.0065772264
O  21.2254127324  33.2705540093  18.3335161152
H  20.4939036075  32.6296488483  18.2757222146
H  21.9294711699  32.8213082861  17.8347415593
O  28.7908217533  29.4355587613  14.3600547738
H  27.8660888990  29.1824162682  14.1978451459
H  29.3181465631  29.2323432032  13.5698066301
O  1.0419401996  1.8365770505  36.7995102567
H  1.8468592568  1.3020416031  36.6694906717
H  1.3410670401  2.7211978030  36.4356470679
O  30.7022060377  18.7252655782  28.2531577426
H  30.7838357973  19.4624169272  28.9315543693
H  33.9423058276  23.7890202632  33.8591212102
O  17.3521959397  30.1920821983  22.3614507875
H  17.2787381032  29.2131782482  22.3597406507
H  16.6320680980  30.5150174258  21.7961546384
O  30.1266013586  31.5790738876  15.5122228006
H  29.8336744607  30.9304660573  14.8887912831
H  30.5192682526  31.1012159510  16.2686852540
H  30.1235408286  14.6077620182  4.8434228604
O  29.1366552318  25.2802497191  21.3880306136
H  29.2644390358  25.0641167644  22.3630844094
H  29.0662823553  26.3280351036  21.4557910312
O  3.0501468884  33.4099410557  23.0807460386
H  3.9071070615  33.3034064460  23.4653735334
H  3.0019293397  34.2463880714  22.6375275507
O  22.6895735065  2.5859465884  0.0564585659
H  22.3295761173  2.0665132363  36.5228559077
H  23.6448571107  2.6514873914  37.2365484837
O  12.0191841537  25.2228861929  24.9493541040
H  12.7671359186  24.5922553380  24.9294917645
H  11.7609374702  25.3106358254  25.8668472248
O  33.4629079307  2.9454467383  21.5047120631
H  34.3416193035  3.3985374534  21.3564028276
H  33.2851120515  2.5837539924  20.6168884335
O  34.9637299682  28.2426441216  35.5214385944
H  34.2736232354  28.9409823540  35.2839830339
H  34.3619617879  27.4966063226  35.6656350742
O  4.3069112896  33.8551824233  20.0356862191
H  5.2102684668  34.1961802307  20.2580922682
H  4.4108772214  32.9144407573  20.2107262102
O  28.4275860352  36.3234164757  23.1217690059
H  27.7260789199  36.4165732566  23.7946595163
H  28.2694908876  35.4776424100  22.7132758159
O  28.5399026699  3.0350301345  29.7993384451
H  28.7840507478  2.1238886283  29.5871629822
H  27.9782275923  3.0174730981  30.6571006015
O  4.3810507290  26.4208408563  29.3712400037
H  4.2880769200  27.0877043051  30.0011772301
H  3.9531518576  25.6775496707  29.8813850412
O  34.9196812041  30.5397582968  21.2294690725
H  34.5624055714  30.5950963379  20.3125958093
H  35.2371663529  29.6653025657  21.2954972288
O  35.7322180497  16.1244279772  20.6314647081
H  36.3952376216  16.6868682498  20.2036729963
H  35.4694581311  16.7035641425  21.3679376502
O  2.3493546240  4.4700848341  22.9675832536
H  2.4242815451  5.3832774305  22.7951982841
H  3.1597980685  4.0141025898  22.9608931117
O  7.4139856461  31.9736062121  28.6656664938
H  7.9760334511  32.7311460862  28.4592687285
H  7.8294174445  31.7662599944  29.4966700696
O  1.7884785106  22.3503092591  5.1307989057
H  2.7717388836  22.3282810980  5.0210196957
H  1.5388083704  21.9975355970  5.9775713307
O  29.2512464560  27.5649088287  16.5813286052
H  28.9746259695  28.1792244445  15.7947726128
H  29.9884220902  28.0788841323  16.9814069675
O  19.1771908944  32.9239002714  31.4475963935
H  19.6788970133  33.4790020047  30.7835930380
H  18.2144356360  33.0638960567  31.2469304493
O  22.5342258624  0.3009391493  32.3706779025
H  22.0920943832  0.0238695504  31.5686023536
H  21.8152670324  0.3006408185  33.0632760104
O  31.5747713715  33.9569801895  17.2485063175
H  32.5011546296  33.7973561386  17.4246831982
H  31.1505915972  33.8514069825  18.1228561870
O  34.7571776527  7.7747276234  28.9607620987
H  34.8879142527  8.0956307186  29.8897388450
H  34.1267819355  7.0449208713  29.0772125310
O  26.0093302286  25.0927786711  15.5922460150
H  26.7478031200  25.3439980431  16.1943484689
H  26.0418733192  25.8651137866  15.0310043493
O  23.8545402511  22.6279388172  23.3160756388
H  24.4690241588  23.3474424908  23.4131703712
H  23.4517945087  22.2988679675  24.1156678550
O  34.2583238262  37.0713117820  23.4691055665
H  34.8096630113  36.2636340982  23.3826790361
H  34.8786284861  0.5035143361  23.8376179800
O  32.2869678161  9.2175026971  15.3850674687
H  23.4150597180  4.1850150950  19.7280697361
H  24.8139839220  1.6161325482  35.1039061906
O  34.8912623085  31.7720690473  28.6217160065
H  34.8643071476  31.1239090512  27.8767436007
H  35.6854245968  31.8291744337  29.1730544107
O  5.2132477168  31.7440735757  4.0034618886
H  5.9192020279  32.2930204249  4.4262594243
H  5.5611514565  30.8472594443  4.1049661682
